# ----- condition settings -----
variable        nch   index 10 # for data1_10.in, 5 = data1_5.in
variable        n     index 10 # number of replicate
variable        rho   index 0.85 # density
variable        rcut  index 1.12246 # or 2.5

variable        rsize equal (${nch}*$n^3/${rho})^(1/3)/2

# ----- main process -----
units           lj
atom_style      bond
special_bonds   fene

neighbor        0.4 bin
neigh_modify    every 1 delay 1 check yes

read_restart    restart1.200000
reset_timestep  200000
replicate       $n $n $n

pair_style      lj/expand ${rcut}
pair_coeff      * * 1.0 1.0 0.0 ${rcut}

bond_style      fene
bond_coeff      1 30.0 1.5 1.0 1.0

fix 1 all nve
fix 2 all langevin 1.0 1.0 2.0 12345
fix 3 all deform 1 x final -${rsize} ${rsize} y final -${rsize} ${rsize} z final -${rsize} ${rsize} remap x


timestep        0.001
thermo_style    multi
thermo          10000

dump            d1 all cfg 1000 cfg/run.*.cfg mass type xs ys zs id type
dump_modify     d1 element C N S

#restart         200000 restart2
run             200000

# ----- Output restart data -----
write_data data.in2.restart