pair_coeff    1    1 lj/cut/coul/long     0.170000     3.250000  # NA NA
pair_coeff    1    2 lj/cut/coul/long     0.109087     3.396690  # NA CR
pair_coeff    1    3 lj/cut/coul/long     0.109087     3.396690  # NA CW
pair_coeff    1    4 lj/cut/coul/long     0.105924     3.372684  # NA C1
pair_coeff    1    5 lj/cut/coul/long     0.071414     2.804461  # NA HCR
pair_coeff    1    6 lj/cut/coul/long     0.105924     3.372684  # NA C1A
pair_coeff    1    7 lj/cut/coul/long     0.071414     2.804461  # NA HCW
pair_coeff    1    8 lj/cut/coul/long     0.071414     2.850439  # NA H1
pair_coeff    1    9 lj/cut/coul/long     0.080502     3.372684  # NA C2 ~
pair_coeff    1   10 lj/cut/coul/long     0.080502     3.372684  # NA CS ~
pair_coeff    1   11 lj/cut/coul/long     0.054275     2.850439  # NA HC ~
pair_coeff    1   12 lj/cut/coul/long     0.080502     3.372684  # NA CT ~
pair_coeff    1   13 lj/cut/coul/long     0.068851     3.372684  # NA CBT ~
pair_coeff    1   14 lj/cut/coul/long     0.066214     3.183316  # NA F1 ~
pair_coeff    1   15 lj/cut/coul/long     0.134001     3.396690  # NA SBT ~
pair_coeff    1   16 lj/cut/coul/long     0.110500     3.250000  # NA NBT ~
pair_coeff    1   17 lj/cut/coul/long     0.119894     3.199609  # NA OBT ~
pair_coeff    2    2 lj/cut/coul/long     0.070000     3.550000  # CR CR
pair_coeff    2    3 lj/cut/coul/long     0.070000     3.550000  # CR CW
pair_coeff    2    4 lj/cut/coul/long     0.067970     3.524911  # CR C1
pair_coeff    2    5 lj/cut/coul/long     0.045826     2.931041  # CR HCR
pair_coeff    2    6 lj/cut/coul/long     0.067970     3.524911  # CR C1A
pair_coeff    2    7 lj/cut/coul/long     0.045826     2.931041  # CR HCW
pair_coeff    2    8 lj/cut/coul/long     0.045826     2.979094  # CR H1
pair_coeff    2    9 lj/cut/coul/long     0.051657     3.524911  # CR C2 ~
pair_coeff    2   10 lj/cut/coul/long     0.051657     3.524911  # CR CS ~
pair_coeff    2   11 lj/cut/coul/long     0.034828     2.979094  # CR HC ~
pair_coeff    2   12 lj/cut/coul/long     0.051657     3.524911  # CR CT ~
pair_coeff    2   13 lj/cut/coul/long     0.044181     3.524911  # CR CBT ~
pair_coeff    2   14 lj/cut/coul/long     0.042489     3.326996  # CR F1 ~
pair_coeff    2   15 lj/cut/coul/long     0.085987     3.550000  # CR SBT ~
pair_coeff    2   16 lj/cut/coul/long     0.070907     3.396690  # CR NBT ~
pair_coeff    2   17 lj/cut/coul/long     0.076935     3.344025  # CR OBT ~
pair_coeff    3    3 lj/cut/coul/long     0.070000     3.550000  # CW CW
pair_coeff    3    4 lj/cut/coul/long     0.067970     3.524911  # CW C1
pair_coeff    3    5 lj/cut/coul/long     0.045826     2.931041  # CW HCR
pair_coeff    3    6 lj/cut/coul/long     0.067970     3.524911  # CW C1A
pair_coeff    3    7 lj/cut/coul/long     0.045826     2.931041  # CW HCW
pair_coeff    3    8 lj/cut/coul/long     0.045826     2.979094  # CW H1
pair_coeff    3    9 lj/cut/coul/long     0.051657     3.524911  # CW C2 ~
pair_coeff    3   10 lj/cut/coul/long     0.051657     3.524911  # CW CS ~
pair_coeff    3   11 lj/cut/coul/long     0.034828     2.979094  # CW HC ~
pair_coeff    3   12 lj/cut/coul/long     0.051657     3.524911  # CW CT ~
pair_coeff    3   13 lj/cut/coul/long     0.044181     3.524911  # CW CBT ~
pair_coeff    3   14 lj/cut/coul/long     0.042489     3.326996  # CW F1 ~
pair_coeff    3   15 lj/cut/coul/long     0.085987     3.550000  # CW SBT ~
pair_coeff    3   16 lj/cut/coul/long     0.070907     3.396690  # CW NBT ~
pair_coeff    3   17 lj/cut/coul/long     0.076935     3.344025  # CW OBT ~
pair_coeff    4    4 lj/cut/coul/long     0.065999     3.500000  # C1 C1
pair_coeff    4    5 lj/cut/coul/long     0.044497     2.910326  # C1 HCR
pair_coeff    4    6 lj/cut/coul/long     0.065999     3.500000  # C1 C1A
pair_coeff    4    7 lj/cut/coul/long     0.044497     2.910326  # C1 HCW
pair_coeff    4    8 lj/cut/coul/long     0.044497     2.958040  # C1 H1
pair_coeff    4    9 lj/cut/coul/long     0.050159     3.500000  # C1 C2 ~
pair_coeff    4   10 lj/cut/coul/long     0.050159     3.500000  # C1 CS ~
pair_coeff    4   11 lj/cut/coul/long     0.033818     2.958040  # C1 HC ~
pair_coeff    4   12 lj/cut/coul/long     0.050159     3.500000  # C1 CT ~
pair_coeff    4   13 lj/cut/coul/long     0.042899     3.500000  # C1 CBT ~
pair_coeff    4   14 lj/cut/coul/long     0.041257     3.303483  # C1 F1 ~
pair_coeff    4   15 lj/cut/coul/long     0.083493     3.524911  # C1 SBT ~
pair_coeff    4   16 lj/cut/coul/long     0.068851     3.372684  # C1 NBT ~
pair_coeff    4   17 lj/cut/coul/long     0.074704     3.320392  # C1 OBT ~
pair_coeff    5    5 lj/cut/coul/long     0.030000     2.420000  # HCR HCR
pair_coeff    5    6 lj/cut/coul/long     0.044497     2.910326  # HCR C1A
pair_coeff    5    7 lj/cut/coul/long     0.030000     2.420000  # HCR HCW
pair_coeff    5    8 lj/cut/coul/long     0.030000     2.459675  # HCR H1
pair_coeff    5    9 lj/cut/coul/long     0.033818     2.910326  # HCR C2 ~
pair_coeff    5   10 lj/cut/coul/long     0.033818     2.910326  # HCR CS ~
pair_coeff    5   11 lj/cut/coul/long     0.022800     2.459675  # HCR HC ~
pair_coeff    5   12 lj/cut/coul/long     0.033818     2.910326  # HCR CT ~
pair_coeff    5   13 lj/cut/coul/long     0.028923     2.910326  # HCR CBT ~
pair_coeff    5   14 lj/cut/coul/long     0.027815     2.746918  # HCR F1 ~
pair_coeff    5   15 lj/cut/coul/long     0.056292     2.931041  # HCR SBT ~
pair_coeff    5   16 lj/cut/coul/long     0.046419     2.804461  # HCR NBT ~
pair_coeff    5   17 lj/cut/coul/long     0.050366     2.760978  # HCR OBT ~
pair_coeff    6    6 lj/cut/coul/long     0.065999     3.500000  # C1A C1A
pair_coeff    6    7 lj/cut/coul/long     0.044497     2.910326  # C1A HCW
pair_coeff    6    8 lj/cut/coul/long     0.044497     2.958040  # C1A H1
pair_coeff    6    9 lj/cut/coul/long     0.050159     3.500000  # C1A C2 ~
pair_coeff    6   10 lj/cut/coul/long     0.050159     3.500000  # C1A CS ~
pair_coeff    6   11 lj/cut/coul/long     0.033818     2.958040  # C1A HC ~
pair_coeff    6   12 lj/cut/coul/long     0.050159     3.500000  # C1A CT ~
pair_coeff    6   13 lj/cut/coul/long     0.042899     3.500000  # C1A CBT ~
pair_coeff    6   14 lj/cut/coul/long     0.041257     3.303483  # C1A F1 ~
pair_coeff    6   15 lj/cut/coul/long     0.083493     3.524911  # C1A SBT ~
pair_coeff    6   16 lj/cut/coul/long     0.068851     3.372684  # C1A NBT ~
pair_coeff    6   17 lj/cut/coul/long     0.074704     3.320392  # C1A OBT ~
pair_coeff    7    7 lj/cut/coul/long     0.030000     2.420000  # HCW HCW
pair_coeff    7    8 lj/cut/coul/long     0.030000     2.459675  # HCW H1
pair_coeff    7    9 lj/cut/coul/long     0.033818     2.910326  # HCW C2 ~
pair_coeff    7   10 lj/cut/coul/long     0.033818     2.910326  # HCW CS ~
pair_coeff    7   11 lj/cut/coul/long     0.022800     2.459675  # HCW HC ~
pair_coeff    7   12 lj/cut/coul/long     0.033818     2.910326  # HCW CT ~
pair_coeff    7   13 lj/cut/coul/long     0.028923     2.910326  # HCW CBT ~
pair_coeff    7   14 lj/cut/coul/long     0.027815     2.746918  # HCW F1 ~
pair_coeff    7   15 lj/cut/coul/long     0.056292     2.931041  # HCW SBT ~
pair_coeff    7   16 lj/cut/coul/long     0.046419     2.804461  # HCW NBT ~
pair_coeff    7   17 lj/cut/coul/long     0.050366     2.760978  # HCW OBT ~
pair_coeff    8    8 lj/cut/coul/long     0.030000     2.500000  # H1 H1
pair_coeff    8    9 lj/cut/coul/long     0.033818     2.958040  # H1 C2 ~
pair_coeff    8   10 lj/cut/coul/long     0.033818     2.958040  # H1 CS ~
pair_coeff    8   11 lj/cut/coul/long     0.022800     2.500000  # H1 HC ~
pair_coeff    8   12 lj/cut/coul/long     0.033818     2.958040  # H1 CT ~
pair_coeff    8   13 lj/cut/coul/long     0.028923     2.958040  # H1 CBT ~
pair_coeff    8   14 lj/cut/coul/long     0.027815     2.791953  # H1 F1 ~
pair_coeff    8   15 lj/cut/coul/long     0.056292     2.979094  # H1 SBT ~
pair_coeff    8   16 lj/cut/coul/long     0.046419     2.850439  # H1 NBT ~
pair_coeff    8   17 lj/cut/coul/long     0.050366     2.806243  # H1 OBT ~
pair_coeff    9    9 lj/cut/coul/long     0.062039     3.500000  # C2 C2 ~
pair_coeff    9   10 lj/cut/coul/long     0.062039     3.500000  # C2 CS ~
pair_coeff    9   11 lj/cut/coul/long     0.041827     2.958040  # C2 HC ~
pair_coeff    9   12 lj/cut/coul/long     0.062039     3.500000  # C2 CT ~
pair_coeff    9   13 lj/cut/coul/long     0.050819     3.500000  # C2 CBT ~
pair_coeff    9   14 lj/cut/coul/long     0.048873     3.303483  # C2 F1 ~
pair_coeff    9   15 lj/cut/coul/long     0.098907     3.524911  # C2 SBT ~
pair_coeff    9   16 lj/cut/coul/long     0.081561     3.372684  # C2 NBT ~
pair_coeff    9   17 lj/cut/coul/long     0.088495     3.320392  # C2 OBT ~
pair_coeff   10   10 lj/cut/coul/long     0.062039     3.500000  # CS CS ~
pair_coeff   10   11 lj/cut/coul/long     0.041827     2.958040  # CS HC ~
pair_coeff   10   12 lj/cut/coul/long     0.062039     3.500000  # CS CT ~
pair_coeff   10   13 lj/cut/coul/long     0.050819     3.500000  # CS CBT ~
pair_coeff   10   14 lj/cut/coul/long     0.048873     3.303483  # CS F1 ~
pair_coeff   10   15 lj/cut/coul/long     0.098907     3.524911  # CS SBT ~
pair_coeff   10   16 lj/cut/coul/long     0.081561     3.372684  # CS NBT ~
pair_coeff   10   17 lj/cut/coul/long     0.088495     3.320392  # CS OBT ~
pair_coeff   11   11 lj/cut/coul/long     0.028200     2.500000  # HC HC ~
pair_coeff   11   12 lj/cut/coul/long     0.041827     2.958040  # HC CT ~
pair_coeff   11   13 lj/cut/coul/long     0.034263     2.958040  # HC CBT ~
pair_coeff   11   14 lj/cut/coul/long     0.032951     2.791953  # HC F1 ~
pair_coeff   11   15 lj/cut/coul/long     0.066684     2.979094  # HC SBT ~
pair_coeff   11   16 lj/cut/coul/long     0.054989     2.850439  # HC NBT ~
pair_coeff   11   17 lj/cut/coul/long     0.059664     2.806243  # HC OBT ~
pair_coeff   12   12 lj/cut/coul/long     0.062039     3.500000  # CT CT ~
pair_coeff   12   13 lj/cut/coul/long     0.050819     3.500000  # CT CBT ~
pair_coeff   12   14 lj/cut/coul/long     0.048873     3.303483  # CT F1 ~
pair_coeff   12   15 lj/cut/coul/long     0.098907     3.524911  # CT SBT ~
pair_coeff   12   16 lj/cut/coul/long     0.081561     3.372684  # CT NBT ~
pair_coeff   12   17 lj/cut/coul/long     0.088495     3.320392  # CT OBT ~
pair_coeff   13   13 lj/cut/coul/long     0.065999     3.500000  # CBT CBT
pair_coeff   13   14 lj/cut/coul/long     0.063472     3.303483  # CBT F1
pair_coeff   13   15 lj/cut/coul/long     0.128451     3.524911  # CBT SBT
pair_coeff   13   16 lj/cut/coul/long     0.105924     3.372684  # CBT NBT
pair_coeff   13   17 lj/cut/coul/long     0.114929     3.320392  # CBT OBT
pair_coeff   14   14 lj/cut/coul/long     0.061042     3.118000  # F1 F1
pair_coeff   14   15 lj/cut/coul/long     0.123533     3.326996  # F1 SBT
pair_coeff   14   16 lj/cut/coul/long     0.101868     3.183316  # F1 NBT
pair_coeff   14   17 lj/cut/coul/long     0.110529     3.133959  # F1 OBT
pair_coeff   15   15 lj/cut/coul/long     0.250000     3.550000  # SBT SBT
pair_coeff   15   16 lj/cut/coul/long     0.206155     3.396690  # SBT NBT
pair_coeff   15   17 lj/cut/coul/long     0.223682     3.344025  # SBT OBT
pair_coeff   16   16 lj/cut/coul/long     0.170000     3.250000  # NBT NBT
pair_coeff   16   17 lj/cut/coul/long     0.184453     3.199609  # NBT OBT
pair_coeff   17   17 lj/cut/coul/long     0.200134     3.150000  # OBT OBT
pair_coeff    *  18* coul/long/cs
pair_coeff    1    1 thole   1.208
pair_coeff    1    2 thole   1.321
pair_coeff    1    3 thole   1.321
pair_coeff    1    4 thole   1.549
pair_coeff    1    6 thole   1.417
pair_coeff    1    9 thole   1.417
pair_coeff    1   10 thole   1.417
pair_coeff    1   12 thole   1.549
pair_coeff    1   13 thole   1.108
pair_coeff    1   14 thole   0.869
pair_coeff    1   15 thole   1.370
pair_coeff    1   16 thole   1.432
pair_coeff    1   17 thole   1.176
pair_coeff    1   18 thole   1.208
pair_coeff    1   19 thole   1.321
pair_coeff    1   20 thole   1.321
pair_coeff    1   21 thole   1.549
pair_coeff    1   22 thole   1.417
pair_coeff    1   23 thole   1.417
pair_coeff    1   24 thole   1.417
pair_coeff    1   25 thole   1.549
pair_coeff    1   26 thole   1.108
pair_coeff    1   27 thole   0.869
pair_coeff    1   28 thole   1.370
pair_coeff    1   29 thole   1.432
pair_coeff    1   30 thole   1.176
pair_coeff    2    2 thole   1.445
pair_coeff    2    3 thole   1.445
pair_coeff    2    4 thole   1.694
pair_coeff    2    6 thole   1.550
pair_coeff    2    9 thole   1.550
pair_coeff    2   10 thole   1.550
pair_coeff    2   12 thole   1.694
pair_coeff    2   13 thole   1.212
pair_coeff    2   14 thole   0.950
pair_coeff    2   15 thole   1.498
pair_coeff    2   16 thole   1.566
pair_coeff    2   17 thole   1.286
pair_coeff    2   18 thole   1.321
pair_coeff    2   19 thole   1.445
pair_coeff    2   20 thole   1.445
pair_coeff    2   21 thole   1.694
pair_coeff    2   22 thole   1.550
pair_coeff    2   23 thole   1.550
pair_coeff    2   24 thole   1.550
pair_coeff    2   25 thole   1.694
pair_coeff    2   26 thole   1.212
pair_coeff    2   27 thole   0.950
pair_coeff    2   28 thole   1.498
pair_coeff    2   29 thole   1.566
pair_coeff    2   30 thole   1.286
pair_coeff    3    3 thole   1.445
pair_coeff    3    4 thole   1.694
pair_coeff    3    6 thole   1.550
pair_coeff    3    9 thole   1.550
pair_coeff    3   10 thole   1.550
pair_coeff    3   12 thole   1.694
pair_coeff    3   13 thole   1.212
pair_coeff    3   14 thole   0.950
pair_coeff    3   15 thole   1.498
pair_coeff    3   16 thole   1.566
pair_coeff    3   17 thole   1.286
pair_coeff    3   18 thole   1.321
pair_coeff    3   19 thole   1.445
pair_coeff    3   20 thole   1.445
pair_coeff    3   21 thole   1.694
pair_coeff    3   22 thole   1.550
pair_coeff    3   23 thole   1.550
pair_coeff    3   24 thole   1.550
pair_coeff    3   25 thole   1.694
pair_coeff    3   26 thole   1.212
pair_coeff    3   27 thole   0.950
pair_coeff    3   28 thole   1.498
pair_coeff    3   29 thole   1.566
pair_coeff    3   30 thole   1.286
pair_coeff    4    4 thole   1.985
pair_coeff    4    6 thole   1.816
pair_coeff    4    9 thole   1.816
pair_coeff    4   10 thole   1.816
pair_coeff    4   12 thole   1.985
pair_coeff    4   13 thole   1.420
pair_coeff    4   14 thole   1.114
pair_coeff    4   15 thole   1.756
pair_coeff    4   16 thole   1.836
pair_coeff    4   17 thole   1.507
pair_coeff    4   18 thole   1.549
pair_coeff    4   19 thole   1.694
pair_coeff    4   20 thole   1.694
pair_coeff    4   21 thole   1.985
pair_coeff    4   22 thole   1.816
pair_coeff    4   23 thole   1.816
pair_coeff    4   24 thole   1.816
pair_coeff    4   25 thole   1.985
pair_coeff    4   26 thole   1.420
pair_coeff    4   27 thole   1.114
pair_coeff    4   28 thole   1.756
pair_coeff    4   29 thole   1.836
pair_coeff    4   30 thole   1.507
pair_coeff    6    6 thole   1.662
pair_coeff    6    9 thole   1.662
pair_coeff    6   10 thole   1.662
pair_coeff    6   12 thole   1.816
pair_coeff    6   13 thole   1.299
pair_coeff    6   14 thole   1.019
pair_coeff    6   15 thole   1.607
pair_coeff    6   16 thole   1.680
pair_coeff    6   17 thole   1.379
pair_coeff    6   18 thole   1.417
pair_coeff    6   19 thole   1.550
pair_coeff    6   20 thole   1.550
pair_coeff    6   21 thole   1.816
pair_coeff    6   22 thole   1.662
pair_coeff    6   23 thole   1.662
pair_coeff    6   24 thole   1.662
pair_coeff    6   25 thole   1.816
pair_coeff    6   26 thole   1.299
pair_coeff    6   27 thole   1.019
pair_coeff    6   28 thole   1.607
pair_coeff    6   29 thole   1.680
pair_coeff    6   30 thole   1.379
pair_coeff    9    9 thole   1.662
pair_coeff    9   10 thole   1.662
pair_coeff    9   12 thole   1.816
pair_coeff    9   13 thole   1.299
pair_coeff    9   14 thole   1.019
pair_coeff    9   15 thole   1.607
pair_coeff    9   16 thole   1.680
pair_coeff    9   17 thole   1.379
pair_coeff    9   18 thole   1.417
pair_coeff    9   19 thole   1.550
pair_coeff    9   20 thole   1.550
pair_coeff    9   21 thole   1.816
pair_coeff    9   22 thole   1.662
pair_coeff    9   23 thole   1.662
pair_coeff    9   24 thole   1.662
pair_coeff    9   25 thole   1.816
pair_coeff    9   26 thole   1.299
pair_coeff    9   27 thole   1.019
pair_coeff    9   28 thole   1.607
pair_coeff    9   29 thole   1.680
pair_coeff    9   30 thole   1.379
pair_coeff   10   10 thole   1.662
pair_coeff   10   12 thole   1.816
pair_coeff   10   13 thole   1.299
pair_coeff   10   14 thole   1.019
pair_coeff   10   15 thole   1.607
pair_coeff   10   16 thole   1.680
pair_coeff   10   17 thole   1.379
pair_coeff   10   18 thole   1.417
pair_coeff   10   19 thole   1.550
pair_coeff   10   20 thole   1.550
pair_coeff   10   21 thole   1.816
pair_coeff   10   22 thole   1.662
pair_coeff   10   23 thole   1.662
pair_coeff   10   24 thole   1.662
pair_coeff   10   25 thole   1.816
pair_coeff   10   26 thole   1.299
pair_coeff   10   27 thole   1.019
pair_coeff   10   28 thole   1.607
pair_coeff   10   29 thole   1.680
pair_coeff   10   30 thole   1.379
pair_coeff   12   12 thole   1.985
pair_coeff   12   13 thole   1.420
pair_coeff   12   14 thole   1.114
pair_coeff   12   15 thole   1.756
pair_coeff   12   16 thole   1.836
pair_coeff   12   17 thole   1.507
pair_coeff   12   18 thole   1.549
pair_coeff   12   19 thole   1.694
pair_coeff   12   20 thole   1.694
pair_coeff   12   21 thole   1.985
pair_coeff   12   22 thole   1.816
pair_coeff   12   23 thole   1.816
pair_coeff   12   24 thole   1.816
pair_coeff   12   25 thole   1.985
pair_coeff   12   26 thole   1.420
pair_coeff   12   27 thole   1.114
pair_coeff   12   28 thole   1.756
pair_coeff   12   29 thole   1.836
pair_coeff   12   30 thole   1.507
pair_coeff   13   13 thole   1.016
pair_coeff   13   14 thole   0.797
pair_coeff   13   15 thole   1.256
pair_coeff   13   16 thole   1.313
pair_coeff   13   17 thole   1.078
pair_coeff   13   18 thole   1.108
pair_coeff   13   19 thole   1.212
pair_coeff   13   20 thole   1.212
pair_coeff   13   21 thole   1.420
pair_coeff   13   22 thole   1.299
pair_coeff   13   23 thole   1.299
pair_coeff   13   24 thole   1.299
pair_coeff   13   25 thole   1.420
pair_coeff   13   26 thole   1.016
pair_coeff   13   27 thole   0.797
pair_coeff   13   28 thole   1.256
pair_coeff   13   29 thole   1.313
pair_coeff   13   30 thole   1.078
pair_coeff   14   14 thole   0.625
pair_coeff   14   15 thole   0.985
pair_coeff   14   16 thole   1.030
pair_coeff   14   17 thole   0.846
pair_coeff   14   18 thole   0.869
pair_coeff   14   19 thole   0.950
pair_coeff   14   20 thole   0.950
pair_coeff   14   21 thole   1.114
pair_coeff   14   22 thole   1.019
pair_coeff   14   23 thole   1.019
pair_coeff   14   24 thole   1.019
pair_coeff   14   25 thole   1.114
pair_coeff   14   26 thole   0.797
pair_coeff   14   27 thole   0.625
pair_coeff   14   28 thole   0.985
pair_coeff   14   29 thole   1.030
pair_coeff   14   30 thole   0.846
pair_coeff   15   15 thole   1.553
pair_coeff   15   16 thole   1.624
pair_coeff   15   17 thole   1.333
pair_coeff   15   18 thole   1.370
pair_coeff   15   19 thole   1.498
pair_coeff   15   20 thole   1.498
pair_coeff   15   21 thole   1.756
pair_coeff   15   22 thole   1.607
pair_coeff   15   23 thole   1.607
pair_coeff   15   24 thole   1.607
pair_coeff   15   25 thole   1.756
pair_coeff   15   26 thole   1.256
pair_coeff   15   27 thole   0.985
pair_coeff   15   28 thole   1.553
pair_coeff   15   29 thole   1.624
pair_coeff   15   30 thole   1.333
pair_coeff   16   16 thole   1.698
pair_coeff   16   17 thole   1.394
pair_coeff   16   18 thole   1.432
pair_coeff   16   19 thole   1.566
pair_coeff   16   20 thole   1.566
pair_coeff   16   21 thole   1.836
pair_coeff   16   22 thole   1.680
pair_coeff   16   23 thole   1.680
pair_coeff   16   24 thole   1.680
pair_coeff   16   25 thole   1.836
pair_coeff   16   26 thole   1.313
pair_coeff   16   27 thole   1.030
pair_coeff   16   28 thole   1.624
pair_coeff   16   29 thole   1.698
pair_coeff   16   30 thole   1.394
pair_coeff   17   17 thole   1.144
pair_coeff   17   18 thole   1.176
pair_coeff   17   19 thole   1.286
pair_coeff   17   20 thole   1.286
pair_coeff   17   21 thole   1.507
pair_coeff   17   22 thole   1.379
pair_coeff   17   23 thole   1.379
pair_coeff   17   24 thole   1.379
pair_coeff   17   25 thole   1.507
pair_coeff   17   26 thole   1.078
pair_coeff   17   27 thole   0.846
pair_coeff   17   28 thole   1.333
pair_coeff   17   29 thole   1.394
pair_coeff   17   30 thole   1.144
pair_coeff   18   18 thole   1.208
pair_coeff   18   19 thole   1.321
pair_coeff   18   20 thole   1.321
pair_coeff   18   21 thole   1.549
pair_coeff   18   22 thole   1.417
pair_coeff   18   23 thole   1.417
pair_coeff   18   24 thole   1.417
pair_coeff   18   25 thole   1.549
pair_coeff   18   26 thole   1.108
pair_coeff   18   27 thole   0.869
pair_coeff   18   28 thole   1.370
pair_coeff   18   29 thole   1.432
pair_coeff   18   30 thole   1.176
pair_coeff   19   19 thole   1.445
pair_coeff   19   20 thole   1.445
pair_coeff   19   21 thole   1.694
pair_coeff   19   22 thole   1.550
pair_coeff   19   23 thole   1.550
pair_coeff   19   24 thole   1.550
pair_coeff   19   25 thole   1.694
pair_coeff   19   26 thole   1.212
pair_coeff   19   27 thole   0.950
pair_coeff   19   28 thole   1.498
pair_coeff   19   29 thole   1.566
pair_coeff   19   30 thole   1.286
pair_coeff   20   20 thole   1.445
pair_coeff   20   21 thole   1.694
pair_coeff   20   22 thole   1.550
pair_coeff   20   23 thole   1.550
pair_coeff   20   24 thole   1.550
pair_coeff   20   25 thole   1.694
pair_coeff   20   26 thole   1.212
pair_coeff   20   27 thole   0.950
pair_coeff   20   28 thole   1.498
pair_coeff   20   29 thole   1.566
pair_coeff   20   30 thole   1.286
pair_coeff   21   21 thole   1.985
pair_coeff   21   22 thole   1.816
pair_coeff   21   23 thole   1.816
pair_coeff   21   24 thole   1.816
pair_coeff   21   25 thole   1.985
pair_coeff   21   26 thole   1.420
pair_coeff   21   27 thole   1.114
pair_coeff   21   28 thole   1.756
pair_coeff   21   29 thole   1.836
pair_coeff   21   30 thole   1.507
pair_coeff   22   22 thole   1.662
pair_coeff   22   23 thole   1.662
pair_coeff   22   24 thole   1.662
pair_coeff   22   25 thole   1.816
pair_coeff   22   26 thole   1.299
pair_coeff   22   27 thole   1.019
pair_coeff   22   28 thole   1.607
pair_coeff   22   29 thole   1.680
pair_coeff   22   30 thole   1.379
pair_coeff   23   23 thole   1.662
pair_coeff   23   24 thole   1.662
pair_coeff   23   25 thole   1.816
pair_coeff   23   26 thole   1.299
pair_coeff   23   27 thole   1.019
pair_coeff   23   28 thole   1.607
pair_coeff   23   29 thole   1.680
pair_coeff   23   30 thole   1.379
pair_coeff   24   24 thole   1.662
pair_coeff   24   25 thole   1.816
pair_coeff   24   26 thole   1.299
pair_coeff   24   27 thole   1.019
pair_coeff   24   28 thole   1.607
pair_coeff   24   29 thole   1.680
pair_coeff   24   30 thole   1.379
pair_coeff   25   25 thole   1.985
pair_coeff   25   26 thole   1.420
pair_coeff   25   27 thole   1.114
pair_coeff   25   28 thole   1.756
pair_coeff   25   29 thole   1.836
pair_coeff   25   30 thole   1.507
pair_coeff   26   26 thole   1.016
pair_coeff   26   27 thole   0.797
pair_coeff   26   28 thole   1.256
pair_coeff   26   29 thole   1.313
pair_coeff   26   30 thole   1.078
pair_coeff   27   27 thole   0.625
pair_coeff   27   28 thole   0.985
pair_coeff   27   29 thole   1.030
pair_coeff   27   30 thole   0.846
pair_coeff   28   28 thole   1.553
pair_coeff   28   29 thole   1.624
pair_coeff   28   30 thole   1.333
pair_coeff   29   29 thole   1.698
pair_coeff   29   30 thole   1.394
pair_coeff   30   30 thole   1.144
