# interactions involving Drude particles
pair_coeff    *  17* coul/long/cs
# Thole damping if more than 1 Drude per molecule
pair_coeff    1    1 thole   1.085
pair_coeff    1    2 thole   1.350
pair_coeff    1    3 thole   1.350
pair_coeff    1    4 thole   1.562
pair_coeff    1    8 thole   1.420
pair_coeff    1    9 thole   1.420
pair_coeff    1   11 thole   1.562
pair_coeff    1   12 thole   1.516
pair_coeff    1   14 thole   1.734
pair_coeff    1   15 thole   1.085
pair_coeff    1   16 thole   0.620
pair_coeff    1   17 thole   1.085
pair_coeff    1   18 thole   1.350
pair_coeff    1   19 thole   1.350
pair_coeff    1   20 thole   1.562
pair_coeff    1   21 thole   1.420
pair_coeff    1   22 thole   1.420
pair_coeff    1   23 thole   1.562
pair_coeff    1   24 thole   1.516
pair_coeff    1   25 thole   1.734
pair_coeff    1   26 thole   1.085
pair_coeff    1   27 thole   0.620
pair_coeff    2    2 thole   1.679
pair_coeff    2    3 thole   1.679
pair_coeff    2    4 thole   1.943
pair_coeff    2    8 thole   1.767
pair_coeff    2    9 thole   1.767
pair_coeff    2   11 thole   1.943
pair_coeff    2   12 thole   1.886
pair_coeff    2   14 thole   2.157
pair_coeff    2   15 thole   1.350
pair_coeff    2   16 thole   0.771
pair_coeff    2   17 thole   1.350
pair_coeff    2   18 thole   1.679
pair_coeff    2   19 thole   1.679
pair_coeff    2   20 thole   1.943
pair_coeff    2   21 thole   1.767
pair_coeff    2   22 thole   1.767
pair_coeff    2   23 thole   1.943
pair_coeff    2   24 thole   1.886
pair_coeff    2   25 thole   2.157
pair_coeff    2   26 thole   1.350
pair_coeff    2   27 thole   0.771
pair_coeff    3    3 thole   1.679
pair_coeff    3    4 thole   1.943
pair_coeff    3    8 thole   1.767
pair_coeff    3    9 thole   1.767
pair_coeff    3   11 thole   1.943
pair_coeff    3   12 thole   1.886
pair_coeff    3   14 thole   2.157
pair_coeff    3   15 thole   1.350
pair_coeff    3   16 thole   0.771
pair_coeff    3   17 thole   1.350
pair_coeff    3   18 thole   1.679
pair_coeff    3   19 thole   1.679
pair_coeff    3   20 thole   1.943
pair_coeff    3   21 thole   1.767
pair_coeff    3   22 thole   1.767
pair_coeff    3   23 thole   1.943
pair_coeff    3   24 thole   1.886
pair_coeff    3   25 thole   2.157
pair_coeff    3   26 thole   1.350
pair_coeff    3   27 thole   0.771
pair_coeff    4    4 thole   2.248
pair_coeff    4    8 thole   2.044
pair_coeff    4    9 thole   2.044
pair_coeff    4   11 thole   2.248
pair_coeff    4   12 thole   2.183
pair_coeff    4   14 thole   2.496
pair_coeff    4   15 thole   1.562
pair_coeff    4   16 thole   0.892
pair_coeff    4   17 thole   1.562
pair_coeff    4   18 thole   1.943
pair_coeff    4   19 thole   1.943
pair_coeff    4   20 thole   2.248
pair_coeff    4   21 thole   2.044
pair_coeff    4   22 thole   2.044
pair_coeff    4   23 thole   2.248
pair_coeff    4   24 thole   2.183
pair_coeff    4   25 thole   2.496
pair_coeff    4   26 thole   1.562
pair_coeff    4   27 thole   0.892
pair_coeff    8    8 thole   1.859
pair_coeff    8    9 thole   1.859
pair_coeff    8   11 thole   2.044
pair_coeff    8   12 thole   1.985
pair_coeff    8   14 thole   2.270
pair_coeff    8   15 thole   1.420
pair_coeff    8   16 thole   0.811
pair_coeff    8   17 thole   1.420
pair_coeff    8   18 thole   1.767
pair_coeff    8   19 thole   1.767
pair_coeff    8   20 thole   2.044
pair_coeff    8   21 thole   1.859
pair_coeff    8   22 thole   1.859
pair_coeff    8   23 thole   2.044
pair_coeff    8   24 thole   1.985
pair_coeff    8   25 thole   2.270
pair_coeff    8   26 thole   1.420
pair_coeff    8   27 thole   0.811
pair_coeff    9    9 thole   1.859
pair_coeff    9   11 thole   2.044
pair_coeff    9   12 thole   1.985
pair_coeff    9   14 thole   2.270
pair_coeff    9   15 thole   1.420
pair_coeff    9   16 thole   0.811
pair_coeff    9   17 thole   1.420
pair_coeff    9   18 thole   1.767
pair_coeff    9   19 thole   1.767
pair_coeff    9   20 thole   2.044
pair_coeff    9   21 thole   1.859
pair_coeff    9   22 thole   1.859
pair_coeff    9   23 thole   2.044
pair_coeff    9   24 thole   1.985
pair_coeff    9   25 thole   2.270
pair_coeff    9   26 thole   1.420
pair_coeff    9   27 thole   0.811
pair_coeff   11   11 thole   2.248
pair_coeff   11   12 thole   2.183
pair_coeff   11   14 thole   2.496
pair_coeff   11   15 thole   1.562
pair_coeff   11   16 thole   0.892
pair_coeff   11   17 thole   1.562
pair_coeff   11   18 thole   1.943
pair_coeff   11   19 thole   1.943
pair_coeff   11   20 thole   2.248
pair_coeff   11   21 thole   2.044
pair_coeff   11   22 thole   2.044
pair_coeff   11   23 thole   2.248
pair_coeff   11   24 thole   2.183
pair_coeff   11   25 thole   2.496
pair_coeff   11   26 thole   1.562
pair_coeff   11   27 thole   0.892
pair_coeff   12   12 thole   2.119
pair_coeff   12   14 thole   2.423
pair_coeff   12   15 thole   1.516
pair_coeff   12   16 thole   0.866
pair_coeff   12   17 thole   1.516
pair_coeff   12   18 thole   1.886
pair_coeff   12   19 thole   1.886
pair_coeff   12   20 thole   2.183
pair_coeff   12   21 thole   1.985
pair_coeff   12   22 thole   1.985
pair_coeff   12   23 thole   2.183
pair_coeff   12   24 thole   2.119
pair_coeff   12   25 thole   2.423
pair_coeff   12   26 thole   1.516
pair_coeff   12   27 thole   0.866
pair_coeff   14   14 thole   2.771
pair_coeff   14   15 thole   1.734
pair_coeff   14   16 thole   0.990
pair_coeff   14   17 thole   1.734
pair_coeff   14   18 thole   2.157
pair_coeff   14   19 thole   2.157
pair_coeff   14   20 thole   2.496
pair_coeff   14   21 thole   2.270
pair_coeff   14   22 thole   2.270
pair_coeff   14   23 thole   2.496
pair_coeff   14   24 thole   2.423
pair_coeff   14   25 thole   2.771
pair_coeff   14   26 thole   1.734
pair_coeff   14   27 thole   0.990
pair_coeff   15   15 thole   1.085
pair_coeff   15   16 thole   0.620
pair_coeff   15   17 thole   1.085
pair_coeff   15   18 thole   1.350
pair_coeff   15   19 thole   1.350
pair_coeff   15   20 thole   1.562
pair_coeff   15   21 thole   1.420
pair_coeff   15   22 thole   1.420
pair_coeff   15   23 thole   1.562
pair_coeff   15   24 thole   1.516
pair_coeff   15   25 thole   1.734
pair_coeff   15   26 thole   1.085
pair_coeff   15   27 thole   0.620
pair_coeff   16   16 thole   0.354
pair_coeff   16   17 thole   0.620
pair_coeff   16   18 thole   0.771
pair_coeff   16   19 thole   0.771
pair_coeff   16   20 thole   0.892
pair_coeff   16   21 thole   0.811
pair_coeff   16   22 thole   0.811
pair_coeff   16   23 thole   0.892
pair_coeff   16   24 thole   0.866
pair_coeff   16   25 thole   0.990
pair_coeff   16   26 thole   0.620
pair_coeff   16   27 thole   0.354
pair_coeff   17   17 thole   1.085
pair_coeff   17   18 thole   1.350
pair_coeff   17   19 thole   1.350
pair_coeff   17   20 thole   1.562
pair_coeff   17   21 thole   1.420
pair_coeff   17   22 thole   1.420
pair_coeff   17   23 thole   1.562
pair_coeff   17   24 thole   1.516
pair_coeff   17   25 thole   1.734
pair_coeff   17   26 thole   1.085
pair_coeff   17   27 thole   0.620
pair_coeff   18   18 thole   1.679
pair_coeff   18   19 thole   1.679
pair_coeff   18   20 thole   1.943
pair_coeff   18   21 thole   1.767
pair_coeff   18   22 thole   1.767
pair_coeff   18   23 thole   1.943
pair_coeff   18   24 thole   1.886
pair_coeff   18   25 thole   2.157
pair_coeff   18   26 thole   1.350
pair_coeff   18   27 thole   0.771
pair_coeff   19   19 thole   1.679
pair_coeff   19   20 thole   1.943
pair_coeff   19   21 thole   1.767
pair_coeff   19   22 thole   1.767
pair_coeff   19   23 thole   1.943
pair_coeff   19   24 thole   1.886
pair_coeff   19   25 thole   2.157
pair_coeff   19   26 thole   1.350
pair_coeff   19   27 thole   0.771
pair_coeff   20   20 thole   2.248
pair_coeff   20   21 thole   2.044
pair_coeff   20   22 thole   2.044
pair_coeff   20   23 thole   2.248
pair_coeff   20   24 thole   2.183
pair_coeff   20   25 thole   2.496
pair_coeff   20   26 thole   1.562
pair_coeff   20   27 thole   0.892
pair_coeff   21   21 thole   1.859
pair_coeff   21   22 thole   1.859
pair_coeff   21   23 thole   2.044
pair_coeff   21   24 thole   1.985
pair_coeff   21   25 thole   2.270
pair_coeff   21   26 thole   1.420
pair_coeff   21   27 thole   0.811
pair_coeff   22   22 thole   1.859
pair_coeff   22   23 thole   2.044
pair_coeff   22   24 thole   1.985
pair_coeff   22   25 thole   2.270
pair_coeff   22   26 thole   1.420
pair_coeff   22   27 thole   0.811
pair_coeff   23   23 thole   2.248
pair_coeff   23   24 thole   2.183
pair_coeff   23   25 thole   2.496
pair_coeff   23   26 thole   1.562
pair_coeff   23   27 thole   0.892
pair_coeff   24   24 thole   2.119
pair_coeff   24   25 thole   2.423
pair_coeff   24   26 thole   1.516
pair_coeff   24   27 thole   0.866
pair_coeff   25   25 thole   2.771
pair_coeff   25   26 thole   1.734
pair_coeff   25   27 thole   0.990
pair_coeff   26   26 thole   1.085
pair_coeff   26   27 thole   0.620
pair_coeff   27   27 thole   0.354
