pair_coeff    1    1 lj/cut/coul/long     0.170000     3.250000  # NA NA
pair_coeff    1    2 lj/cut/coul/long     0.109087     3.396690  # NA CR
pair_coeff    1    3 lj/cut/coul/long     0.109087     3.396690  # NA CW
pair_coeff    1    4 lj/cut/coul/long     0.105924     3.372684  # NA C1
pair_coeff    1    5 lj/cut/coul/long     0.071414     2.804461  # NA HCR
pair_coeff    1    6 lj/cut/coul/long     0.071414     2.804461  # NA HCW
pair_coeff    1    7 lj/cut/coul/long     0.071414     2.850439  # NA H1
pair_coeff    1    8 lj/cut/coul/long     0.105924     3.372684  # NA C2
pair_coeff    1    9 lj/cut/coul/long     0.105924     3.372684  # NA CS
pair_coeff    1   10 lj/cut/coul/long     0.071414     2.850439  # NA HC
pair_coeff    1   11 lj/cut/coul/long     0.105924     3.372684  # NA CT
pair_coeff    1   12 lj/cut/coul/long     0.105924     3.372684  # NA CBT
pair_coeff    1   13 lj/cut/coul/long     0.101868     3.183316  # NA F1
pair_coeff    1   14 lj/cut/coul/long     0.206155     3.396690  # NA SBT
pair_coeff    1   15 lj/cut/coul/long     0.170000     3.250000  # NA NBT
pair_coeff    1   16 lj/cut/coul/long     0.184453     3.199609  # NA OBT
pair_coeff    2    2 lj/cut/coul/long     0.070000     3.550000  # CR CR
pair_coeff    2    3 lj/cut/coul/long     0.070000     3.550000  # CR CW
pair_coeff    2    4 lj/cut/coul/long     0.067970     3.524911  # CR C1
pair_coeff    2    5 lj/cut/coul/long     0.045826     2.931041  # CR HCR
pair_coeff    2    6 lj/cut/coul/long     0.045826     2.931041  # CR HCW
pair_coeff    2    7 lj/cut/coul/long     0.045826     2.979094  # CR H1
pair_coeff    2    8 lj/cut/coul/long     0.067970     3.524911  # CR C2
pair_coeff    2    9 lj/cut/coul/long     0.067970     3.524911  # CR CS
pair_coeff    2   10 lj/cut/coul/long     0.045826     2.979094  # CR HC
pair_coeff    2   11 lj/cut/coul/long     0.067970     3.524911  # CR CT
pair_coeff    2   12 lj/cut/coul/long     0.067970     3.524911  # CR CBT
pair_coeff    2   13 lj/cut/coul/long     0.065368     3.326996  # CR F1
pair_coeff    2   14 lj/cut/coul/long     0.132288     3.550000  # CR SBT
pair_coeff    2   15 lj/cut/coul/long     0.109087     3.396690  # CR NBT
pair_coeff    2   16 lj/cut/coul/long     0.118361     3.344025  # CR OBT
pair_coeff    3    3 lj/cut/coul/long     0.070000     3.550000  # CW CW
pair_coeff    3    4 lj/cut/coul/long     0.067970     3.524911  # CW C1
pair_coeff    3    5 lj/cut/coul/long     0.045826     2.931041  # CW HCR
pair_coeff    3    6 lj/cut/coul/long     0.045826     2.931041  # CW HCW
pair_coeff    3    7 lj/cut/coul/long     0.045826     2.979094  # CW H1
pair_coeff    3    8 lj/cut/coul/long     0.067970     3.524911  # CW C2
pair_coeff    3    9 lj/cut/coul/long     0.067970     3.524911  # CW CS
pair_coeff    3   10 lj/cut/coul/long     0.045826     2.979094  # CW HC
pair_coeff    3   11 lj/cut/coul/long     0.067970     3.524911  # CW CT
pair_coeff    3   12 lj/cut/coul/long     0.067970     3.524911  # CW CBT
pair_coeff    3   13 lj/cut/coul/long     0.065368     3.326996  # CW F1
pair_coeff    3   14 lj/cut/coul/long     0.132288     3.550000  # CW SBT
pair_coeff    3   15 lj/cut/coul/long     0.109087     3.396690  # CW NBT
pair_coeff    3   16 lj/cut/coul/long     0.118361     3.344025  # CW OBT
pair_coeff    4    4 lj/cut/coul/long     0.065999     3.500000  # C1 C1
pair_coeff    4    5 lj/cut/coul/long     0.044497     2.910326  # C1 HCR
pair_coeff    4    6 lj/cut/coul/long     0.044497     2.910326  # C1 HCW
pair_coeff    4    7 lj/cut/coul/long     0.044497     2.958040  # C1 H1
pair_coeff    4    8 lj/cut/coul/long     0.065999     3.500000  # C1 C2
pair_coeff    4    9 lj/cut/coul/long     0.065999     3.500000  # C1 CS
pair_coeff    4   10 lj/cut/coul/long     0.044497     2.958040  # C1 HC
pair_coeff    4   11 lj/cut/coul/long     0.065999     3.500000  # C1 CT
pair_coeff    4   12 lj/cut/coul/long     0.065999     3.500000  # C1 CBT
pair_coeff    4   13 lj/cut/coul/long     0.063472     3.303483  # C1 F1
pair_coeff    4   14 lj/cut/coul/long     0.128451     3.524911  # C1 SBT
pair_coeff    4   15 lj/cut/coul/long     0.105924     3.372684  # C1 NBT
pair_coeff    4   16 lj/cut/coul/long     0.114929     3.320392  # C1 OBT
pair_coeff    5    5 lj/cut/coul/long     0.030000     2.420000  # HCR HCR
pair_coeff    5    6 lj/cut/coul/long     0.030000     2.420000  # HCR HCW
pair_coeff    5    7 lj/cut/coul/long     0.030000     2.459675  # HCR H1
pair_coeff    5    8 lj/cut/coul/long     0.044497     2.910326  # HCR C2
pair_coeff    5    9 lj/cut/coul/long     0.044497     2.910326  # HCR CS
pair_coeff    5   10 lj/cut/coul/long     0.030000     2.459675  # HCR HC
pair_coeff    5   11 lj/cut/coul/long     0.044497     2.910326  # HCR CT
pair_coeff    5   12 lj/cut/coul/long     0.044497     2.910326  # HCR CBT
pair_coeff    5   13 lj/cut/coul/long     0.042793     2.746918  # HCR F1
pair_coeff    5   14 lj/cut/coul/long     0.086603     2.931041  # HCR SBT
pair_coeff    5   15 lj/cut/coul/long     0.071414     2.804461  # HCR NBT
pair_coeff    5   16 lj/cut/coul/long     0.077486     2.760978  # HCR OBT
pair_coeff    6    6 lj/cut/coul/long     0.030000     2.420000  # HCW HCW
pair_coeff    6    7 lj/cut/coul/long     0.030000     2.459675  # HCW H1
pair_coeff    6    8 lj/cut/coul/long     0.044497     2.910326  # HCW C2
pair_coeff    6    9 lj/cut/coul/long     0.044497     2.910326  # HCW CS
pair_coeff    6   10 lj/cut/coul/long     0.030000     2.459675  # HCW HC
pair_coeff    6   11 lj/cut/coul/long     0.044497     2.910326  # HCW CT
pair_coeff    6   12 lj/cut/coul/long     0.044497     2.910326  # HCW CBT
pair_coeff    6   13 lj/cut/coul/long     0.042793     2.746918  # HCW F1
pair_coeff    6   14 lj/cut/coul/long     0.086603     2.931041  # HCW SBT
pair_coeff    6   15 lj/cut/coul/long     0.071414     2.804461  # HCW NBT
pair_coeff    6   16 lj/cut/coul/long     0.077486     2.760978  # HCW OBT
pair_coeff    7    7 lj/cut/coul/long     0.030000     2.500000  # H1 H1
pair_coeff    7    8 lj/cut/coul/long     0.044497     2.958040  # H1 C2
pair_coeff    7    9 lj/cut/coul/long     0.044497     2.958040  # H1 CS
pair_coeff    7   10 lj/cut/coul/long     0.030000     2.500000  # H1 HC
pair_coeff    7   11 lj/cut/coul/long     0.044497     2.958040  # H1 CT
pair_coeff    7   12 lj/cut/coul/long     0.044497     2.958040  # H1 CBT
pair_coeff    7   13 lj/cut/coul/long     0.042793     2.791953  # H1 F1
pair_coeff    7   14 lj/cut/coul/long     0.086603     2.979094  # H1 SBT
pair_coeff    7   15 lj/cut/coul/long     0.071414     2.850439  # H1 NBT
pair_coeff    7   16 lj/cut/coul/long     0.077486     2.806243  # H1 OBT
pair_coeff    8    8 lj/cut/coul/long     0.065999     3.500000  # C2 C2
pair_coeff    8    9 lj/cut/coul/long     0.065999     3.500000  # C2 CS
pair_coeff    8   10 lj/cut/coul/long     0.044497     2.958040  # C2 HC
pair_coeff    8   11 lj/cut/coul/long     0.065999     3.500000  # C2 CT
pair_coeff    8   12 lj/cut/coul/long     0.065999     3.500000  # C2 CBT
pair_coeff    8   13 lj/cut/coul/long     0.063472     3.303483  # C2 F1
pair_coeff    8   14 lj/cut/coul/long     0.128451     3.524911  # C2 SBT
pair_coeff    8   15 lj/cut/coul/long     0.105924     3.372684  # C2 NBT
pair_coeff    8   16 lj/cut/coul/long     0.114929     3.320392  # C2 OBT
pair_coeff    9    9 lj/cut/coul/long     0.065999     3.500000  # CS CS
pair_coeff    9   10 lj/cut/coul/long     0.044497     2.958040  # CS HC
pair_coeff    9   11 lj/cut/coul/long     0.065999     3.500000  # CS CT
pair_coeff    9   12 lj/cut/coul/long     0.065999     3.500000  # CS CBT
pair_coeff    9   13 lj/cut/coul/long     0.063472     3.303483  # CS F1
pair_coeff    9   14 lj/cut/coul/long     0.128451     3.524911  # CS SBT
pair_coeff    9   15 lj/cut/coul/long     0.105924     3.372684  # CS NBT
pair_coeff    9   16 lj/cut/coul/long     0.114929     3.320392  # CS OBT
pair_coeff   10   10 lj/cut/coul/long     0.030000     2.500000  # HC HC
pair_coeff   10   11 lj/cut/coul/long     0.044497     2.958040  # HC CT
pair_coeff   10   12 lj/cut/coul/long     0.044497     2.958040  # HC CBT
pair_coeff   10   13 lj/cut/coul/long     0.042793     2.791953  # HC F1
pair_coeff   10   14 lj/cut/coul/long     0.086603     2.979094  # HC SBT
pair_coeff   10   15 lj/cut/coul/long     0.071414     2.850439  # HC NBT
pair_coeff   10   16 lj/cut/coul/long     0.077486     2.806243  # HC OBT
pair_coeff   11   11 lj/cut/coul/long     0.065999     3.500000  # CT CT
pair_coeff   11   12 lj/cut/coul/long     0.065999     3.500000  # CT CBT
pair_coeff   11   13 lj/cut/coul/long     0.063472     3.303483  # CT F1
pair_coeff   11   14 lj/cut/coul/long     0.128451     3.524911  # CT SBT
pair_coeff   11   15 lj/cut/coul/long     0.105924     3.372684  # CT NBT
pair_coeff   11   16 lj/cut/coul/long     0.114929     3.320392  # CT OBT
pair_coeff   12   12 lj/cut/coul/long     0.065999     3.500000  # CBT CBT
pair_coeff   12   13 lj/cut/coul/long     0.063472     3.303483  # CBT F1
pair_coeff   12   14 lj/cut/coul/long     0.128451     3.524911  # CBT SBT
pair_coeff   12   15 lj/cut/coul/long     0.105924     3.372684  # CBT NBT
pair_coeff   12   16 lj/cut/coul/long     0.114929     3.320392  # CBT OBT
pair_coeff   13   13 lj/cut/coul/long     0.061042     3.118000  # F1 F1
pair_coeff   13   14 lj/cut/coul/long     0.123533     3.326996  # F1 SBT
pair_coeff   13   15 lj/cut/coul/long     0.101868     3.183316  # F1 NBT
pair_coeff   13   16 lj/cut/coul/long     0.110529     3.133959  # F1 OBT
pair_coeff   14   14 lj/cut/coul/long     0.250000     3.550000  # SBT SBT
pair_coeff   14   15 lj/cut/coul/long     0.206155     3.396690  # SBT NBT
pair_coeff   14   16 lj/cut/coul/long     0.223682     3.344025  # SBT OBT
pair_coeff   15   15 lj/cut/coul/long     0.170000     3.250000  # NBT NBT
pair_coeff   15   16 lj/cut/coul/long     0.184453     3.199609  # NBT OBT
pair_coeff   16   16 lj/cut/coul/long     0.200134     3.150000  # OBT OBT
