# Molecular dynamics NPT script

#variable 	thermo_file string 'thermo.log'
#variable	header string 'step vol temp press density etotal pe ke evdwl ecoul ebond eangle edihed eimp'
#print 		${header} file ${thermo_file}

log		log_900K.lmps

# General
units           real
atom_style      full
newton          on
boundary        p p p

# Style
#pair_style     lj/cut/coul/long 12.500
pair_style      lj/cut 12.500
bond_style      harmonic
angle_style     hybrid cosine/periodic fourier
dihedral_style  harmonic
improper_style  fourier
pair_modify     tail yes mix arithmetic
special_bonds   lj/coul 0.0 0.0 1.0
#kspace_style    ewald 1.0e-4

# Atom Definition
read_data	NPT_eq_900T.lmps
include		ZnMOP-bix_potential.mod

# Settings
dielectric      1.0
neighbor        2.0 bin
neigh_modify	delay 0 every 1 check yes
#neigh_modify    delay 0 every 1 one 12000 page 120000 check yes
timestep        1.0
run_style       verlet

thermo_style	custom step vol temp press density etotal pe ke evdwl ecoul ebond eangle edihed eimp
thermo		1000
dump		1 all custom 4000 NPT_900K.trj id mol type x y z
dump_modify	1 delay 4000000

fix             1 all npt temp 900 900 100.0 iso 1 1 500.0
run             10000000

write_data	NPT_glass_dynamics_900K.lmps

# DONE
