units			real
boundary		p p p
atom_style		full

pair_style		lj/class2/coul/long 12.0
kspace_style		pppm 0.00001
pair_modify             mix sixthpower
pair_modify		tail yes
bond_style		class2
angle_style		class2
dihedral_style		class2
improper_style		class2
special_bonds		lj/coul 0.0 0.0 1.0

read_data 		CAR.structure

include			CAR.parameters

neighbor		2.0 bin
neigh_modify		delay 0 every 1 check yes

variable		sysvol		equal vol
variable		sysmass		equal mass(all)/6.0221367e+23
variable		sysdensity	equal v_sysmass/v_sysvol/1.0e-24
variable		time		equal step*dt+0.000001
variable		cella		equal lx
variable		etotal		equal etotal
variable		pe		equal pe
variable		ke		equal ke

thermo_style		custom step v_time press vol v_sysdensity temp pe ke etotal
thermo_modify		flush yes

timestep 		0.5

run 			0
