Input files to compute the \Delta A_2 term for the Einstein molecule method.

-----------------
\Delta A_2 files|
-----------------
1) input-EC.dat
----------------
dimension       3
units           lj
atom_style      full

read_data      config-EC.dat

group all type 1 

neighbor        0.3 bin
neigh_modify    every 1 check yes

#      lenard-jones truncated at rc   
pair_style  lj/cut  2.7
pair_coeff      1 1   1.0  1.0

# shifted potential
pair_modify     shift yes

# velocities extracted from maxwell boltzmann at T*=2
velocity        all create 2 455511

restart         100000 old_config_1.dat  old_config_2.dat

# chosen ensemble
fix             5 all nve

#v-rescaling
fix		7 all temp/rescale 200 2 2  0.1 1.0 

fix 		8 all	spring/self XXX
fix_modify	8    energy yes

thermo          10
thermo_style custom  step f_8 

timestep        0.001
run             2000000
################################################################
2) landas_EC.dat
-----------------
1 40.516	6.66915625E-02
2 223.785	0.15259600
3 598.683	0.23238577
4 1255.95	0.30267334
5 2358.18	0.36057186
6 4177.98	0.40370926
7 7146.84	0.43031904
8 11896.1	0.43931171
9 19243.2	0.43031904
10 30039.9	0.40370926
11 44796.8	0.36057186
12 63089.6	0.30267334
13 82989.8	0.23238577
14 100999	0.15259600
15 112921	6.66915625E-02
#####################################################
3) deltaA2.sh
--------------
#!/bin/bash

N=15
Nsteps=100
T=240.
nmol=256
cexp=33.11545

rm pesos.dat calcula.dat
rm -r ./director
rm energies.dat integral.dat
mkdir ./director

(for ((i=1; i<$N+1; i++)); do

 read num landa w
 echo $w >> pesos.dat

 mkdir ./director/$landa

 head -29 input-EC.dat > input.dat
 echo "fix             8 all   spring/self  $landa" >> input.dat
 tail -7 input-EC.dat >> input.dat

 ./lmp_serial < input.dat

 cp log.lammps ./director/$landa
 cp input.dat ./director/$landa

 endline=`awk '{ if($1=="Loop") print NR}' log.lammps`

 numline=`awk '{ if($1=="Step") print NR}' log.lammps`
 awk -v line=$numline end=$endline'{if((NR>line)&&(NR<end)) print $1,$2}' log.lammps > log.lammps.1
 awk -v NORM=$landa '{print $1,$2*2/NORM*11.59}' log.lammps.1 > drbond.dat

 cp drbond.dat ./director/$landa

 integ=`awk '{a=a+$2 ; print a/NR}' drbond.dat  |tail -1` 
 landakt=`echo $landa | awk '{print $1*0.04325/2}' `
 echo $landakt $integ >> integral.dat

 rm log.lammps input.dat log.lammps.1

done) < landas_EC.dat

paste integral.dat pesos.dat > calcula.dat

awk -v const=$cexp '{s+=($2*($1+const))*$3} END {print (-1)*s}' calcula.dat > final_value_DA2.txt
read Da2 < final_value_DA2.txt

echo "Delta A_2 / NkT =" $Da2

rm pesos.dat calcula.dat
##################################################################################
4) config-EC.dat
-----------------
LAMMPS Description 
 
	 256 atoms 
 	 0 bonds 
 	 0 angles 
 	 0 dihedrals 
 	 0 impropers 

 	 1 atom types 
 	 0 bond types 
 	 0 angle types 
 	 0 dihedral types 
 	 0 improper types 

-2.92402 2.92402 xlo xhi
-2.92402 2.92402 ylo yhi
-2.92402 2.92402 zlo zhi

Masses 
 
	 1 1.0000 
Atoms 
 
1 1   1     0  	-2.63162 -2.63162 -2.63162	 0   0   0 
2 2   1     0  	-1.90061 -1.90061 -2.63162	 0   0   0 
3 3   1     0  	-1.90061 -2.63162 -1.90061	 0   0   0 
4 4   1     0  	-2.63162 -1.90061 -1.90061	 0   0   0 
5 5   1     0  	-2.63162 -2.63162 -1.16961	 0   0   0 
6 6   1     0  	-1.90061 -1.90061 -1.16961	 0   0   0 
7 7   1     0  	-1.90061 -2.63162 -0.438603	 0   0   0 
8 8   1     0  	-2.63162 -1.90061 -0.438603	 0   0   0 
9 9   1     0  	-2.63162 -2.63162 0.292402	 0   0   0 
10 10   1     0  	-1.90061 -1.90061 0.292402	 0   0   0 
11 11   1     0  	-1.90061 -2.63162 1.02341	 0   0   0 
12 12   1     0  	-2.63162 -1.90061 1.02341	 0   0   0 
13 13   1     0  	-2.63162 -2.63162 1.75441	 0   0   0 
14 14   1     0  	-1.90061 -1.90061 1.75441	 0   0   0 
15 15   1     0  	-1.90061 -2.63162 2.48542	 0   0   0 
16 16   1     0  	-2.63162 -1.90061 2.48542	 0   0   0 
17 17   1     0  	-2.63162 -1.16961 -2.63162	 0   0   0 
18 18   1     0  	-1.90061 -0.438603 -2.63162	 0   0   0 
19 19   1     0  	-1.90061 -1.16961 -1.90061	 0   0   0 
20 20   1     0  	-2.63162 -0.438603 -1.90061	 0   0   0 
21 21   1     0  	-2.63162 -1.16961 -1.16961	 0   0   0 
22 22   1     0  	-1.90061 -0.438603 -1.16961	 0   0   0 
23 23   1     0  	-1.90061 -1.16961 -0.438603	 0   0   0 
24 24   1     0  	-2.63162 -0.438603 -0.438603	 0   0   0 
25 25   1     0  	-2.63162 -1.16961 0.292402	 0   0   0 
26 26   1     0  	-1.90061 -0.438603 0.292402	 0   0   0 
27 27   1     0  	-1.90061 -1.16961 1.02341	 0   0   0 
28 28   1     0  	-2.63162 -0.438603 1.02341	 0   0   0 
29 29   1     0  	-2.63162 -1.16961 1.75441	 0   0   0 
30 30   1     0  	-1.90061 -0.438603 1.75441	 0   0   0 
31 31   1     0  	-1.90061 -1.16961 2.48542	 0   0   0 
32 32   1     0  	-2.63162 -0.438603 2.48542	 0   0   0 
33 33   1     0  	-2.63162 0.292402 -2.63162	 0   0   0 
34 34   1     0  	-1.90061 1.02341 -2.63162	 0   0   0 
35 35   1     0  	-1.90061 0.292402 -1.90061	 0   0   0 
36 36   1     0  	-2.63162 1.02341 -1.90061	 0   0   0 
37 37   1     0  	-2.63162 0.292402 -1.16961	 0   0   0 
38 38   1     0  	-1.90061 1.02341 -1.16961	 0   0   0 
39 39   1     0  	-1.90061 0.292402 -0.438603	 0   0   0 
40 40   1     0  	-2.63162 1.02341 -0.438603	 0   0   0 
41 41   1     0  	-2.63162 0.292402 0.292402	 0   0   0 
42 42   1     0  	-1.90061 1.02341 0.292402	 0   0   0 
43 43   1     0  	-1.90061 0.292402 1.02341	 0   0   0 
44 44   1     0  	-2.63162 1.02341 1.02341	 0   0   0 
45 45   1     0  	-2.63162 0.292402 1.75441	 0   0   0 
46 46   1     0  	-1.90061 1.02341 1.75441	 0   0   0 
47 47   1     0  	-1.90061 0.292402 2.48542	 0   0   0 
48 48   1     0  	-2.63162 1.02341 2.48542	 0   0   0 
49 49   1     0  	-2.63162 1.75441 -2.63162	 0   0   0 
50 50   1     0  	-1.90061 2.48542 -2.63162	 0   0   0 
51 51   1     0  	-1.90061 1.75441 -1.90061	 0   0   0 
52 52   1     0  	-2.63162 2.48542 -1.90061	 0   0   0 
53 53   1     0  	-2.63162 1.75441 -1.16961	 0   0   0 
54 54   1     0  	-1.90061 2.48542 -1.16961	 0   0   0 
55 55   1     0  	-1.90061 1.75441 -0.438603	 0   0   0 
56 56   1     0  	-2.63162 2.48542 -0.438603	 0   0   0 
57 57   1     0  	-2.63162 1.75441 0.292402	 0   0   0 
58 58   1     0  	-1.90061 2.48542 0.292402	 0   0   0 
59 59   1     0  	-1.90061 1.75441 1.02341	 0   0   0 
60 60   1     0  	-2.63162 2.48542 1.02341	 0   0   0 
61 61   1     0  	-2.63162 1.75441 1.75441	 0   0   0 
62 62   1     0  	-1.90061 2.48542 1.75441	 0   0   0 
63 63   1     0  	-1.90061 1.75441 2.48542	 0   0   0 
64 64   1     0  	-2.63162 2.48542 2.48542	 0   0   0 
65 65   1     0  	-1.16961 -2.63162 -2.63162	 0   0   0 
66 66   1     0  	-0.438603 -1.90061 -2.63162	 0   0   0 
67 67   1     0  	-0.438603 -2.63162 -1.90061	 0   0   0 
68 68   1     0  	-1.16961 -1.90061 -1.90061	 0   0   0 
69 69   1     0  	-1.16961 -2.63162 -1.16961	 0   0   0 
70 70   1     0  	-0.438603 -1.90061 -1.16961	 0   0   0 
71 71   1     0  	-0.438603 -2.63162 -0.438603	 0   0   0 
72 72   1     0  	-1.16961 -1.90061 -0.438603	 0   0   0 
73 73   1     0  	-1.16961 -2.63162 0.292402	 0   0   0 
74 74   1     0  	-0.438603 -1.90061 0.292402	 0   0   0 
75 75   1     0  	-0.438603 -2.63162 1.02341	 0   0   0 
76 76   1     0  	-1.16961 -1.90061 1.02341	 0   0   0 
77 77   1     0  	-1.16961 -2.63162 1.75441	 0   0   0 
78 78   1     0  	-0.438603 -1.90061 1.75441	 0   0   0 
79 79   1     0  	-0.438603 -2.63162 2.48542	 0   0   0 
80 80   1     0  	-1.16961 -1.90061 2.48542	 0   0   0 
81 81   1     0  	-1.16961 -1.16961 -2.63162	 0   0   0 
82 82   1     0  	-0.438603 -0.438603 -2.63162	 0   0   0 
83 83   1     0  	-0.438603 -1.16961 -1.90061	 0   0   0 
84 84   1     0  	-1.16961 -0.438603 -1.90061	 0   0   0 
85 85   1     0  	-1.16961 -1.16961 -1.16961	 0   0   0 
86 86   1     0  	-0.438603 -0.438603 -1.16961	 0   0   0 
87 87   1     0  	-0.438603 -1.16961 -0.438603	 0   0   0 
88 88   1     0  	-1.16961 -0.438603 -0.438603	 0   0   0 
89 89   1     0  	-1.16961 -1.16961 0.292402	 0   0   0 
90 90   1     0  	-0.438603 -0.438603 0.292402	 0   0   0 
91 91   1     0  	-0.438603 -1.16961 1.02341	 0   0   0 
92 92   1     0  	-1.16961 -0.438603 1.02341	 0   0   0 
93 93   1     0  	-1.16961 -1.16961 1.75441	 0   0   0 
94 94   1     0  	-0.438603 -0.438603 1.75441	 0   0   0 
95 95   1     0  	-0.438603 -1.16961 2.48542	 0   0   0 
96 96   1     0  	-1.16961 -0.438603 2.48542	 0   0   0 
97 97   1     0  	-1.16961 0.292402 -2.63162	 0   0   0 
98 98   1     0  	-0.438603 1.02341 -2.63162	 0   0   0 
99 99   1     0  	-0.438603 0.292402 -1.90061	 0   0   0 
100 100   1     0  	-1.16961 1.02341 -1.90061	 0   0   0 
101 101   1     0  	-1.16961 0.292402 -1.16961	 0   0   0 
102 102   1     0  	-0.438603 1.02341 -1.16961	 0   0   0 
103 103   1     0  	-0.438603 0.292402 -0.438603	 0   0   0 
104 104   1     0  	-1.16961 1.02341 -0.438603	 0   0   0 
105 105   1     0  	-1.16961 0.292402 0.292402	 0   0   0 
106 106   1     0  	-0.438603 1.02341 0.292402	 0   0   0 
107 107   1     0  	-0.438603 0.292402 1.02341	 0   0   0 
108 108   1     0  	-1.16961 1.02341 1.02341	 0   0   0 
109 109   1     0  	-1.16961 0.292402 1.75441	 0   0   0 
110 110   1     0  	-0.438603 1.02341 1.75441	 0   0   0 
111 111   1     0  	-0.438603 0.292402 2.48542	 0   0   0 
112 112   1     0  	-1.16961 1.02341 2.48542	 0   0   0 
113 113   1     0  	-1.16961 1.75441 -2.63162	 0   0   0 
114 114   1     0  	-0.438603 2.48542 -2.63162	 0   0   0 
115 115   1     0  	-0.438603 1.75441 -1.90061	 0   0   0 
116 116   1     0  	-1.16961 2.48542 -1.90061	 0   0   0 
117 117   1     0  	-1.16961 1.75441 -1.16961	 0   0   0 
118 118   1     0  	-0.438603 2.48542 -1.16961	 0   0   0 
119 119   1     0  	-0.438603 1.75441 -0.438603	 0   0   0 
120 120   1     0  	-1.16961 2.48542 -0.438603	 0   0   0 
121 121   1     0  	-1.16961 1.75441 0.292402	 0   0   0 
122 122   1     0  	-0.438603 2.48542 0.292402	 0   0   0 
123 123   1     0  	-0.438603 1.75441 1.02341	 0   0   0 
124 124   1     0  	-1.16961 2.48542 1.02341	 0   0   0 
125 125   1     0  	-1.16961 1.75441 1.75441	 0   0   0 
126 126   1     0  	-0.438603 2.48542 1.75441	 0   0   0 
127 127   1     0  	-0.438603 1.75441 2.48542	 0   0   0 
128 128   1     0  	-1.16961 2.48542 2.48542	 0   0   0 
129 129   1     0  	0.292402 -2.63162 -2.63162	 0   0   0 
130 130   1     0  	1.02341 -1.90061 -2.63162	 0   0   0 
131 131   1     0  	1.02341 -2.63162 -1.90061	 0   0   0 
132 132   1     0  	0.292402 -1.90061 -1.90061	 0   0   0 
133 133   1     0  	0.292402 -2.63162 -1.16961	 0   0   0 
134 134   1     0  	1.02341 -1.90061 -1.16961	 0   0   0 
135 135   1     0  	1.02341 -2.63162 -0.438603	 0   0   0 
136 136   1     0  	0.292402 -1.90061 -0.438603	 0   0   0 
137 137   1     0  	0.292402 -2.63162 0.292402	 0   0   0 
138 138   1     0  	1.02341 -1.90061 0.292402	 0   0   0 
139 139   1     0  	1.02341 -2.63162 1.02341	 0   0   0 
140 140   1     0  	0.292402 -1.90061 1.02341	 0   0   0 
141 141   1     0  	0.292402 -2.63162 1.75441	 0   0   0 
142 142   1     0  	1.02341 -1.90061 1.75441	 0   0   0 
143 143   1     0  	1.02341 -2.63162 2.48542	 0   0   0 
144 144   1     0  	0.292402 -1.90061 2.48542	 0   0   0 
145 145   1     0  	0.292402 -1.16961 -2.63162	 0   0   0 
146 146   1     0  	1.02341 -0.438603 -2.63162	 0   0   0 
147 147   1     0  	1.02341 -1.16961 -1.90061	 0   0   0 
148 148   1     0  	0.292402 -0.438603 -1.90061	 0   0   0 
149 149   1     0  	0.292402 -1.16961 -1.16961	 0   0   0 
150 150   1     0  	1.02341 -0.438603 -1.16961	 0   0   0 
151 151   1     0  	1.02341 -1.16961 -0.438603	 0   0   0 
152 152   1     0  	0.292402 -0.438603 -0.438603	 0   0   0 
153 153   1     0  	0.292402 -1.16961 0.292402	 0   0   0 
154 154   1     0  	1.02341 -0.438603 0.292402	 0   0   0 
155 155   1     0  	1.02341 -1.16961 1.02341	 0   0   0 
156 156   1     0  	0.292402 -0.438603 1.02341	 0   0   0 
157 157   1     0  	0.292402 -1.16961 1.75441	 0   0   0 
158 158   1     0  	1.02341 -0.438603 1.75441	 0   0   0 
159 159   1     0  	1.02341 -1.16961 2.48542	 0   0   0 
160 160   1     0  	0.292402 -0.438603 2.48542	 0   0   0 
161 161   1     0  	0.292402 0.292402 -2.63162	 0   0   0 
162 162   1     0  	1.02341 1.02341 -2.63162	 0   0   0 
163 163   1     0  	1.02341 0.292402 -1.90061	 0   0   0 
164 164   1     0  	0.292402 1.02341 -1.90061	 0   0   0 
165 165   1     0  	0.292402 0.292402 -1.16961	 0   0   0 
166 166   1     0  	1.02341 1.02341 -1.16961	 0   0   0 
167 167   1     0  	1.02341 0.292402 -0.438603	 0   0   0 
168 168   1     0  	0.292402 1.02341 -0.438603	 0   0   0 
169 169   1     0  	0.292402 0.292402 0.292402	 0   0   0 
170 170   1     0  	1.02341 1.02341 0.292402	 0   0   0 
171 171   1     0  	1.02341 0.292402 1.02341	 0   0   0 
172 172   1     0  	0.292402 1.02341 1.02341	 0   0   0 
173 173   1     0  	0.292402 0.292402 1.75441	 0   0   0 
174 174   1     0  	1.02341 1.02341 1.75441	 0   0   0 
175 175   1     0  	1.02341 0.292402 2.48542	 0   0   0 
176 176   1     0  	0.292402 1.02341 2.48542	 0   0   0 
177 177   1     0  	0.292402 1.75441 -2.63162	 0   0   0 
178 178   1     0  	1.02341 2.48542 -2.63162	 0   0   0 
179 179   1     0  	1.02341 1.75441 -1.90061	 0   0   0 
180 180   1     0  	0.292402 2.48542 -1.90061	 0   0   0 
181 181   1     0  	0.292402 1.75441 -1.16961	 0   0   0 
182 182   1     0  	1.02341 2.48542 -1.16961	 0   0   0 
183 183   1     0  	1.02341 1.75441 -0.438603	 0   0   0 
184 184   1     0  	0.292402 2.48542 -0.438603	 0   0   0 
185 185   1     0  	0.292402 1.75441 0.292402	 0   0   0 
186 186   1     0  	1.02341 2.48542 0.292402	 0   0   0 
187 187   1     0  	1.02341 1.75441 1.02341	 0   0   0 
188 188   1     0  	0.292402 2.48542 1.02341	 0   0   0 
189 189   1     0  	0.292402 1.75441 1.75441	 0   0   0 
190 190   1     0  	1.02341 2.48542 1.75441	 0   0   0 
191 191   1     0  	1.02341 1.75441 2.48542	 0   0   0 
192 192   1     0  	0.292402 2.48542 2.48542	 0   0   0 
193 193   1     0  	1.75441 -2.63162 -2.63162	 0   0   0 
194 194   1     0  	2.48542 -1.90061 -2.63162	 0   0   0 
195 195   1     0  	2.48542 -2.63162 -1.90061	 0   0   0 
196 196   1     0  	1.75441 -1.90061 -1.90061	 0   0   0 
197 197   1     0  	1.75441 -2.63162 -1.16961	 0   0   0 
198 198   1     0  	2.48542 -1.90061 -1.16961	 0   0   0 
199 199   1     0  	2.48542 -2.63162 -0.438603	 0   0   0 
200 200   1     0  	1.75441 -1.90061 -0.438603	 0   0   0 
201 201   1     0  	1.75441 -2.63162 0.292402	 0   0   0 
202 202   1     0  	2.48542 -1.90061 0.292402	 0   0   0 
203 203   1     0  	2.48542 -2.63162 1.02341	 0   0   0 
204 204   1     0  	1.75441 -1.90061 1.02341	 0   0   0 
205 205   1     0  	1.75441 -2.63162 1.75441	 0   0   0 
206 206   1     0  	2.48542 -1.90061 1.75441	 0   0   0 
207 207   1     0  	2.48542 -2.63162 2.48542	 0   0   0 
208 208   1     0  	1.75441 -1.90061 2.48542	 0   0   0 
209 209   1     0  	1.75441 -1.16961 -2.63162	 0   0   0 
210 210   1     0  	2.48542 -0.438603 -2.63162	 0   0   0 
211 211   1     0  	2.48542 -1.16961 -1.90061	 0   0   0 
212 212   1     0  	1.75441 -0.438603 -1.90061	 0   0   0 
213 213   1     0  	1.75441 -1.16961 -1.16961	 0   0   0 
214 214   1     0  	2.48542 -0.438603 -1.16961	 0   0   0 
215 215   1     0  	2.48542 -1.16961 -0.438603	 0   0   0 
216 216   1     0  	1.75441 -0.438603 -0.438603	 0   0   0 
217 217   1     0  	1.75441 -1.16961 0.292402	 0   0   0 
218 218   1     0  	2.48542 -0.438603 0.292402	 0   0   0 
219 219   1     0  	2.48542 -1.16961 1.02341	 0   0   0 
220 220   1     0  	1.75441 -0.438603 1.02341	 0   0   0 
221 221   1     0  	1.75441 -1.16961 1.75441	 0   0   0 
222 222   1     0  	2.48542 -0.438603 1.75441	 0   0   0 
223 223   1     0  	2.48542 -1.16961 2.48542	 0   0   0 
224 224   1     0  	1.75441 -0.438603 2.48542	 0   0   0 
225 225   1     0  	1.75441 0.292402 -2.63162	 0   0   0 
226 226   1     0  	2.48542 1.02341 -2.63162	 0   0   0 
227 227   1     0  	2.48542 0.292402 -1.90061	 0   0   0 
228 228   1     0  	1.75441 1.02341 -1.90061	 0   0   0 
229 229   1     0  	1.75441 0.292402 -1.16961	 0   0   0 
230 230   1     0  	2.48542 1.02341 -1.16961	 0   0   0 
231 231   1     0  	2.48542 0.292402 -0.438603	 0   0   0 
232 232   1     0  	1.75441 1.02341 -0.438603	 0   0   0 
233 233   1     0  	1.75441 0.292402 0.292402	 0   0   0 
234 234   1     0  	2.48542 1.02341 0.292402	 0   0   0 
235 235   1     0  	2.48542 0.292402 1.02341	 0   0   0 
236 236   1     0  	1.75441 1.02341 1.02341	 0   0   0 
237 237   1     0  	1.75441 0.292402 1.75441	 0   0   0 
238 238   1     0  	2.48542 1.02341 1.75441	 0   0   0 
239 239   1     0  	2.48542 0.292402 2.48542	 0   0   0 
240 240   1     0  	1.75441 1.02341 2.48542	 0   0   0 
241 241   1     0  	1.75441 1.75441 -2.63162	 0   0   0 
242 242   1     0  	2.48542 2.48542 -2.63162	 0   0   0 
243 243   1     0  	2.48542 1.75441 -1.90061	 0   0   0 
244 244   1     0  	1.75441 2.48542 -1.90061	 0   0   0 
245 245   1     0  	1.75441 1.75441 -1.16961	 0   0   0 
246 246   1     0  	2.48542 2.48542 -1.16961	 0   0   0 
247 247   1     0  	2.48542 1.75441 -0.438603	 0   0   0 
248 248   1     0  	1.75441 2.48542 -0.438603	 0   0   0 
249 249   1     0  	1.75441 1.75441 0.292402	 0   0   0 
250 250   1     0  	2.48542 2.48542 0.292402	 0   0   0 
251 251   1     0  	2.48542 1.75441 1.02341	 0   0   0 
252 252   1     0  	1.75441 2.48542 1.02341	 0   0   0 
253 253   1     0  	1.75441 1.75441 1.75441	 0   0   0 
254 254   1     0  	2.48542 2.48542 1.75441	 0   0   0 
255 255   1     0  	2.48542 1.75441 2.48542	 0   0   0 
256 256   1     0  	1.75441 2.48542 2.48542	 0   0   0 
#######################################################################
