# ----- condition settings -----
variable        rcut  index 1.12246 # or 2.5
variable        exbond index 16

# ----- main process -----
units           lj
atom_style      bond
#special_bonds   fene extra ${exbond}
special_bonds   fene
newton on off

neighbor        0.4 bin
neigh_modify    every 1 delay 1 check yes

pair_style      lj/expand ${rcut}
bond_style      fene

read_data       data.in2.restart extra/bond/per/atom ${exbond} extra/special/per/atom ${exbond}
reset_timestep  400000

pair_coeff      * * 1.0 1.0 0.0 ${rcut}
bond_coeff      1 30.0 1.5 1.0 1.0

fix 1 all nve
fix 2 all langevin 1.0 1.0 2.0 12345
fix 4 all bond/create 1 1 2 1.1 1 iparam 3 3 jparam 2 3 prob 0.1 12345

timestep        0.001
thermo_style    multi
thermo          10000

dump            d1 all cfg 1000 cfg/run.*.cfg mass type xs ys zs id type
dump_modify     d1 element C N S

restart         200000 restart3
run             200000

# ----- Output restart data -----
write_data data.in3.restart