# created by fftool

units real
boundary p p p

atom_style full
bond_style harmonic
angle_style harmonic
dihedral_style opls

special_bonds lj/coul 0.0 0.0 0.5

pair_style hybrid/overlay lj/cut/coul/long 12.0 12.0 coul/long/cs 12.0 thole 2.600 12.0
pair_modify tail yes
kspace_style pppm 1.0e-6 #FP we use 1.0e-6

read_data loop.dat extra/special/per/atom 6
include pair-p-sc.lmp

group ATOMS type 1:17
group CORES type 1 2 3 4 6 9 10 12 13 14 15 16 17
group DRUDES type 18:30
group CATIONS type 1 2 3 4 5 6 7 8 9 10 11 12 18 19 20 21 22 23 24 25 #FP I added that for field stuff
group ANIONS type 13 14 15 16 17 26 27 28 29 30 #FP I added that for field stuff

fix DRUDE all drude C C C C N C N N C C N C C C C C C D D D D D D D D D D D D D




fix SHAKE ATOMS shake 0.0001 20 0 b 5 6 7 #FP we normally use 100 iterations

neighbor 2.0 bin
neigh_modify delay 0 every 1 check yes

timestep 0.5

variable TK equal 333.15
variable TDK equal 1.0
variable PBAR equal 1.0



comm_modify vel yes

compute TDRUDE all temp/drude


fix ICECUBE all momentum 1000 linear 1 1 1

#dump TRAJ all custom 1000 dump.lammpstrj id mol type element xu yu zu
#dump_modify TRAJ sort id &
#  element N C C C H C H H C C H C C F S N O D D D D D D D D D D D D D

thermo_style custom step etotal press ke pe ecoul elong vol c_TDRUDE[1] c_TDRUDE[2] c_TDRUDE[3] c_TDRUDE[4]
thermo 1000

fix NVT all tgnvt/drude temp ${TK} ${TK} 100 1.0 25
run 50000
unfix NVT

variable V equal vol
reset_timestep 0

write_data beforeloop.dat

	fix NPT all tgnpt/drude temp ${TK} ${TK} 100 ${TDK} 25 iso ${PBAR} ${PBAR} 1000

	fix 3 all ave/time 10 30000 300000 v_V
	
	run  300000 upto

	variable b equal f_3^(1/3)
	variable abc equal f_3

	print "Average Volume is ${abc}"
	print "$b" append Cellsize_tgnpt.dat screen no
	print "Cell Vector is $b."

write_data loop.dat

write_dump all xyz snapshot.xyz modify sort id element N C C C H C H H C C H C C F S N O D D D D D D D D D D D D D
