# created by fftool

units real
boundary p p p

atom_style full
bond_style harmonic
angle_style harmonic
dihedral_style opls

special_bonds lj/coul 0.0 0.0 0.5

pair_style hybrid/overlay lj/cut/coul/long 12.0 coul/long/cs 12.0 thole 2.600 12.0
pair_modify tail yes
kspace_style pppm 1.0e-6 #FP we use 1.0e-6

read_data equilibrated4ns.dat extra/special/per/atom 6
include pair-p-sc.lmp

group ATOMS type 1:18
group CORES type 1 2 3 4 6 9 10 12 13 14 15 16 17
group DRUDES type 19:31

fix DRUDE all drude C C C C N C N N C C N C C C C C C N D D D D D D D D D D D D D




fix SHAKE ATOMS shake 0.0001 20 0 b 5 6 7 13

neighbor 2.0 bin
neigh_modify delay 0 every 1 check yes

timestep 0.5

variable TK equal 333.15
variable TDK equal 1.0
variable PBAR equal 1.0



comm_modify vel yes

compute TDRUDE all temp/drude

# fix NVT all tgnvt/drude temp $T $T 100 1.0 25 #FP we use 5 for the last parameter, not 100...

fix ICECUBE all momentum 1000 linear 1 1 1


thermo_style custom step etotal spcpu press c_TDRUDE[1] c_TDRUDE[2] c_TDRUDE[3] c_TDRUDE[4]
thermo 1000

fix NVT all tgnvt/drude temp ${TK} ${TK} 100 1.0 25

### preeq
run 10000



reset_timestep 0

restart 2000 restart1.lmp restart2.lmp

dump TRAJ all custom 2000 BMIMTFSM_CLPOL_333K_1000fs_XYZ.lmp element xu yu zu
dump_modify TRAJ sort id element N C C C H C H H C C H C F C S C O H D D D D D D D D D D D D D # append yes



run 20000000


