# CP2K template input file for geometry optimization of BIL_mixture
# ECUT 280 RY || FORCE MAX 0.005 a.u
# 812 atoms -- box length 20.4967
&GLOBAL 
        PROJECT_NAME    bmim-cl-bf4-7-21
        RUN_TYPE        GEO_OPT
        PRINT_LEVEL     MEDIUM
&END GLOBAL

&FORCE_EVAL
        METHOD  QUICKSTEP

        &DFT
                # path of basis set files in mallige
                BASIS_SET_FILE_NAME    <path>/GTH_BASIS_SETS
                POTENTIAL_FILE_NAME    <path>/POTENTIAL
                &MGRID
                        NGRIDS          5
                        CUTOFF          280
                &END MGRID

                &QS
                        METHOD          GPW
                        EPS_DEFAULT     1.0E-10
                &END QS

                &SCF
                        MAX_SCF         50
                        EPS_SCF         1.0E-6
                        SCF_GUESS       RESTART
                        &OT
                                MINIMIZER       CG
                                PRECONDITIONER  FULL_ALL
                                ENERGY_GAP      0.001
                        &END OT
                        &OUTER_SCF
                                MAX_SCF         100
                                EPS_SCF         1.0E-6
                        &END OUTER_SCF
                &END SCF

                &XC
                        &XC_FUNCTIONAL  PBE
                        &END XC_FUNCTIONAL

                        &VDW_POTENTIAL
                                POTENTIAL_TYPE                  PAIR_POTENTIAL
                                &PAIR_POTENTIAL
                                        TYPE                    DFTD2
                                        REFERENCE_FUNCTIONAL    PBE
                                &END PAIR_POTENTIAL
                        &END VDW_POTENTIAL
                &END XC

        &END DFT

        &SUBSYS
                &CELL
                        ABC     20.4967  20.4967  20.4967
                &END CELL
                
                &COORD
                        @INCLUDE        geo_opt.xyz
                &END COORD
                
                &KIND H 
                        BASIS_SET       TZV2P-GTH
                        POTENTIAL       GTH-PBE-q1
                &END KIND
                
                &KIND B 
                        BASIS_SET       TZV2P-GTH
                        POTENTIAL       GTH-PBE-q3
                &END KIND
                
                &KIND C 
                        BASIS_SET       TZV2P-GTH
                        POTENTIAL       GTH-PBE-q4
                &END KIND
                
                &KIND N 
                        BASIS_SET       TZV2P-GTH
                        POTENTIAL       GTH-PBE-q5
                &END KIND
                
                &KIND F 
                        BASIS_SET       TZV2P-GTH
                        POTENTIAL       GTH-PBE-q7
                &END KIND
                
                &KIND Cl 
                        BASIS_SET       TZV2P-GTH
                        POTENTIAL       GTH-PBE-q7
                &END KIND
                
        &END SUBSYS
&END FORCE_EVAL

&MOTION
        &GEO_OPT
                MINIMIZER       BFGS
                MAX_ITER        10000
                MAX_FORCE       5.0E-3
        &END GEO_OPT
&END MOTION

&EXT_RESTART
        RESTART_FILE_NAME       bmim-cl-bf4-7-21-1.restart
&END EXT_RESTART


