# ----- condition settings -----
# rcut = 2^(1/6) = 1.12246
variable nstep equal 10^5


# ----- main process -----
units           lj
atom_style      bond
special_bonds   fene

comm_modify     cutoff 2.0

neighbor        0.4 bin
neigh_modify    every 1 delay 1 # check yes

#pair_style      lj/cut 1.12246
pair_style      lj/expand 1.12246
bond_style      fene

#read_restart   data.in3.restart2
read_data       data.in3.restart

#pair_coeff      * * 1.0 1.0 1.12246
pair_coeff      * * 1.0 1.0 0.0 1.12246
pair_modify     shift yes
bond_coeff      1 30.0 1.5 1.0 1.0

change_box      all triclinic

fix 1 all nve
fix 2 all langevin 1.0 1.0 2.0 12345

compute  t all temp
compute  p all pressure t
variable pxx   equal c_p[1]
variable pyy   equal c_p[2]
variable pzz   equal c_p[3]
variable pxy   equal c_p[4]
variable pxz   equal c_p[5]
variable pyz   equal c_p[6]
variable pxxyy equal v_pxx-v_pyy
variable pxxzz equal v_pxx-v_pzz
variable pyyzz equal v_pyy-v_pzz

thermo_style    custom step c_t v_pxx v_pyy v_pzz v_pxy v_pxz v_pyz

timestep        0.01
thermo_style    multi
thermo          1000

#fix ave1 all ave/time 1 100 100 v_pxx v_pyy v_pzz v_pxy v_pxz v_pyz c_t file pressure.txt

fix ave2 all ave/correlate/long 1 1024 v_pxy v_pxz v_pyz v_pxxyy v_pxxzz v_pyyzz &
  file corr.long.dat overwrite ncorr 30

dump            d1 all cfg 1000 cfg/run.*.cfg mass type xs ys zs id type
dump_modify     d1 element C N C

run ${nstep}

write_restart data.in4.restart2
