# Base Input Script File
variable dp equal 0. 0 0 1
variable RPM equal xx
variable T_r equal 1/(${RPM}/60)
variable length equal 3∗${dp}

atom_style granular
boundary f p f
newton off
atom_modify sort 0 0

communicate single vel yes
units si

region reg cylinder y 0 0 1.05 0.0 ${length} units box
create_box 2 reg

neighbor 0.02 bin
neigh_modify delay 0

#Material properties required for new pair styles

fix m1 all property/global youngsModulus peratomtype 5e6 2e9
fix m2 all property/global poissonsRatio peratomtype 0.25 0.35
fix m3 all property/global coefficientRestitution peratomtypepair 2 0.35 0.1 0.1 1
fix m4 all property/global coefficientFriction peratomtypepair 2 0.8 0.8 0.8 1
fix m5 all property/global characteristicVelocity scalar 2.0
fix m6 all property/global coefficientRollingFriction peratomtypepair 2 0.01 0.01 0.01 1

#New pair style
pair_style gran/hertz/history 3 0
pair_coeff ∗ 

timestep 0. 0 0 0 0 0 0 1

fix 1 all nve/sphere
fix 2 all gravity 9.8 1 vector 0.0 0.0 -1.0

#import triangular mesh from cad; the syntax is as follows:
fix cad all mesh/gran cylinder3ref.stl 2 1 0.0 0.0 0.0 0.0 0.0 0.0 rotation 0 0 0 0 1 0 ${T_r}

#use the imported mesh as granular wall
fix granwalls all wall/gran/hertz/history 3 0 mesh/gran 1 cad

#particle distributions
fix pts1 all particletemplate/sphere 1 atom_type 1 density constant 4000 radius constant ${dp}

fix pts2 all particletemplate/sphere 1 atom_type 1 density constant 4000 radius constant ${dp}

fix pdd1 all particledistribution/discrete 1 2 pts1 0.5 pts2 0.5

#region of insertion
region bc block −0.65 0.65 0 ${length} −1.05 −0.85 units box

group nve_group region reg
fix ins nve_group insert/pack seed 56 distributiontemplate pdd1 &
  insert_every once overlapcheck yes volumefraction_region 0.5 region bc

fix ts all check/timestep/gran 1000 0.1 0.1

compute 1 all erotate/sphere

thermo_style custom step atoms ke c_1 f_ts[1] f_ts[2] vol
thermo 1000
thermo_modify lost ignore norm no
compute_modify thermo_temp dynamic yes

#insert the first particles so that dump is not empty
run 1
dump dmp all custom 100000 post/kiln.dump id type type x y z ix iy iz &
  vx vy vz fx fy fz omegax omegay omegaz radius
dump dumpstl all stl 100000 post/dump∗.stl

#one geometry dump is enough
undump dumpstl

#insert particles and settle
run 100000 upto
unfix ins

#moving mesh
run 150000000 upto