variable T equal 333.15
variable V equal vol
variable dt equal 1.0

units          real
boundary       p p p
atom_style     full
pair_style     lj/cut/coul/long 12.0
pair_modify    mix geometric tail yes
bond_style     harmonic
angle_style    harmonic
dihedral_style opls
kspace_style   pppm 1.0e-5
special_bonds  lj/coul 0.0 0.0 0.5

read_data XXXXequilibrated333K.dat
neighbor      2.0 bin
neigh_modify  every 1 delay 0 check yes page 1000000 one 15000
timestep 1.0

thermo_style custom step temp etotal press vol
thermo 1000

fix PRE all nvt temp $T $T 100
run 200050
unfix PRE

reset_timestep 0

variable time equal dt*step
variable Temperatur equal temp
print "Time(fs) Temperature" file Temperature.dat screen no
fix SAVETEMP all print 1000 "${time} ${Temperatur}" append Temperature.dat screen no

fix NVE all nve

	dump XYTRAJ all custom 1000 trajectoryfilename.lmp element xu yu zu
	dump_modify XYTRAJ element N C C C H H H C C H C C F S N O sort id



run 10000000

write_data XXXXnve333K.dat

quit
