#  This is the control script for LAMMPS

echo			both
log		3.1_Initialize.out

#-------------------------------------------------------------------------------
# Stage 3.1: Initialize LAMMPS run for 3-d periodic
#-------------------------------------------------------------------------------

units			real
boundary		p p p
atom_style		full

pair_style		lj/class2/coul/cut 9.5
pair_modify             mix sixthpower
pair_modify		tail yes
bond_style		class2
angle_style		class2
dihedral_style		class2
improper_style		class2
special_bonds		lj/coul 0.0 0.0 1.0

box                     tilt large
read_data		MeCN_LiTfO.initial_structure

include			MeCN_LiTfO.parameters

neighbor		2.0 bin
neigh_modify		delay 0 every 1 check yes

variable		R		equal 0.00198722
variable		sysvol		equal vol
variable		sysmass		equal mass(all)/6.0221367e+23
variable		sysdensity	equal v_sysmass/v_sysvol/1.0e-24
variable		coulomb		equal ecoul+elong
variable		etotal		equal etotal
variable		pe		equal pe
variable		ke		equal ke
variable		evdwl		equal evdwl
variable		epair		equal epair
variable		ebond		equal ebond
variable		eangle		equal eangle
variable		edihed		equal edihed
variable		eimp		equal eimp
variable		lx		equal lx
variable		ly		equal ly
variable		lz		equal lz
variable		Nthermo		equal 0
variable		cella		equal lx
variable		cellb		equal sqrt(ly*ly+xy*xy)
variable		cellc		equal sqrt(lz*lz+xz*xz+yz*yz)
variable		cellalpha	equal acos((xy*xz+ly*yz)/(v_cellb*v_cellc))
variable		cellbeta	equal acos(xz/v_cellc)
variable		cellgamma	equal acos(xy/v_cellb)
variable		p		equal press
variable		pxx		equal pxx
variable		pyy		equal pyy
variable		pzz		equal pzz
variable		pyz		equal pyz
variable		pxz		equal pxz
variable		pxy		equal pxy
variable		sxx		equal -pxx
variable		syy		equal -pyy
variable		szz		equal -pzz
variable		syz		equal -pyz
variable		sxz		equal -pxz
variable		sxy		equal -pxy
variable		fmax		equal fmax
variable	        fnorm		equal fnorm
variable		time equal step*dt+0.000001
variable		surfacetension equal 0.5*v_lz*(0.5*(v_sxx+v_syy)-v_szz)

thermo_style		custom step v_time press vol v_sysdensity temp ebond eangle edihed eimp evdwl ecoul etail elong pe ke
thermo_modify		flush yes


#
# Set up the fixed and movable groups
#

group		movable union all
group		fixed subtract all movable
log		3.2_Minimization.out
#-------------------------------------------------------------------------------
# Stage 3.2: Minimization
#-------------------------------------------------------------------------------

min_style		cg
min_modify		dmax 0.05 line fast
reset_timestep		0
thermo_style		custom step fmax fnorm press vol v_sysdensity v_sxx v_syy v_szz v_syz v_sxz v_sxy pe v_cella v_cellb v_cellc v_cellalpha v_cellbeta v_cellgamma
dump			sci all custom 1000 3.2.xyz id mol type q xs ys zs
thermo			100
dump			trj all custom 100 3.2.Trajectory.xyz id mol type q xs ys zs
fix				3_2_2 fixed setforce 0.0 0.0 0.0
minimize		0.0 1.0e-4 1000 10000
undump			trj

undump			sci
unfix			3_2_2
log		3.3_Velocities.out
#-------------------------------------------------------------------------------
# Stage 3.3: Set the initial velocities for $T
#-------------------------------------------------------------------------------

velocity     	all create 300 72489 dist gaussian mom yes rot no

log		3.4_NVT.out
#-------------------------------------------------------------------------------
# Stage 3.4: NVT integration for 100 ps with a timestep of 0.5 fs
#             Temperature 300 K
#-------------------------------------------------------------------------------

reset_timestep		0
thermo_style		custom step v_time press vol v_sysdensity temp ebond eangle edihed eimp evdwl ecoul etail elong pe ke
thermo			${Nthermo}
fix			1 movable nvt temp 300 300 50 drag 1.0
fix			2 movable ave/time 1 20000 20000 v_time c_thermo_temp c_thermo_press v_sysvol v_sysdensity v_etotal v_pe v_ke v_evdwl v_coulomb v_sxx v_syy v_szz v_syz v_sxz v_sxy file 3.4_averages.txt
fix			3 movable ave/time 20  1     20 v_time  c_thermo_temp c_thermo_press v_sysvol v_sysdensity v_etotal v_pe v_ke v_evdwl v_coulomb v_sxx v_syy v_szz v_syz v_sxz v_sxy file 3.4_instantaneous.txt
restart			200000 3.4.restart
dump			trj all custom 20000 3.4.Trajectory.xyz id mol type q xs ys zs
fix			trjE all ave/time 20000 1 20000 v_etotal v_pe v_ke file 3.4.energies.txt

timestep		0.5
run			200000
undump			trj
unfix			trjE

restart			0
dump			sci all custom 200000 3.4.xyz id mol type q xs ys zs
run			0
undump			sci

unfix			1
unfix			2
unfix			3

write_data		MeCN_LiTfO.updated_structure
