# ----- condition settings -----
variable        rcut  index 1.12246 # or 2.5

units           lj
atom_style      bond
special_bonds   fene

neighbor        0.4 bin
neigh_modify    every 1 delay 1 check yes

read_restart 	restart3.600000

reset_timestep  0

pair_style      lj/expand ${rcut}
pair_coeff      * * 1.0 1.0 0.0 ${rcut}

bond_style      fene
bond_coeff      1 30.0 1.5 1.0 1.0

fix 1 all nve
fix 2 all langevin 1.0 1.0 2.0 12345
fix 5 all deform 10 x erate 0.005 y volume z volume remap x units lattice

compute pres all pressure thermo_temp
fix 6 all ave/time 2000 1 2000 c_pres[1] c_pres[2] c_pres[3] c_pres[4] c_pres[5] c_pres[6] file press.txt ave one

timestep        0.001
thermo_style    multi
thermo          10000

dump            d1 all cfg 1000 cfg/run.*.cfg mass type xs ys zs id type
dump_modify     d1 element C N S

restart         200000 restart4
run             200000

# ----- Output restart data -----
write_data data.in4.restart