# Energy minimization script with class2 ff for simulated polymerization

# General
units            real
atom_style       full
dimension        3
newton           on
boundary         p p p

# Style
#pair_style      lj/cut/coul/long 12.500
pair_style      lj/cut 12.500
bond_style      harmonic
angle_style     hybrid cosine/periodic fourier
dihedral_style  harmonic
improper_style  fourier
pair_modify     tail yes mix arithmetic
special_bonds   lj/coul 0.0 0.0 1.0

# Atom Definition
read_data        data.lmps

# Settings
dielectric       1.0
neighbor         2.0 bin
neigh_modify     delay 0 every 1 check yes
timestep         1.0
run_style        verlet

# Output
thermo_style     custom step vol temp press etotal pe ke evdwl ecoul ebond eangle edihed eimp
thermo           100

# Minimization Step
min_style        sd
minimize         1.0e-3 1.0e-3 1000 100000
min_style        cg
min_modify       line quadratic
minimize         1.0e-4 1.0e-4 1000 100000

# Restart file
write_data    min.lmps

# DONE
